%%MatrixMarket matrix coordinate real general
%
592 73 663                                                        
1 13 1
2 48 1
3 41 1
4 45 1
5 62 1
6 70 1
7 51 1
8 58 1
9 71 1
10 48 1
10 52 1
11 25 1
12 4 1
13 38 1
14 54 1
15 69 1
16 34 1
17 71 1
18 18 1
19 30 1
20 52 1
21 38 1
21 58 1
22 9 1
22 43 1
22 52 1
24 68 1
25 70 1
26 62 1
27 52 1
28 52 1
29 71 1
30 54 1
31 38 1
32 4 1
33 62 2
34 70 1
35 43 1
36 51 1
36 52 1
37 18 1
37 52 1
38 4 1
39 52 1
40 62 1
41 70 1
42 18 1
43 54 1
44 70 1
45 54 1
46 71 1
47 12 1
48 51 1
49 41 1
50 48 1
51 48 1
51 71 1
52 71 1
53 54 1
54 51 1
55 54 1
56 9 1
57 61 1
58 71 1
59 45 1
60 20 1
61 70 1
62 70 1
63 45 1
64 70 1
65 34 1
66 30 1
67 30 1
68 55 1
69 25 1
70 51 1
71 13 2
71 30 1
72 45 1
73 58 1
74 41 1
75 2 1
76 62 1
77 48 1
78 43 1
79 65 1
80 71 1
81 43 1
82 25 1
83 51 1
84 48 1
85 9 1
86 68 1
87 70 1
88 71 1
89 4 1
90 51 1
91 68 1
92 6 1
93 48 1
94 62 1
95 25 1
95 52 1
96 68 1
97 70 1
98 4 1
99 71 1
100 61 1
101 25 1
102 45 1
103 51 1
104 12 1
105 52 1
106 62 1
107 70 1
108 55 1
109 2 1
109 48 1
110 13 1
111 25 1
112 68 1
113 52 1
114 70 1
115 24 1
115 33 1
115 51 2
115 54 1
115 71 1
116 65 1
117 54 1
118 51 1
119 60 1
120 60 1
121 70 1
122 30 1
122 41 1
122 51 1
122 71 1
123 60 1
124 2 1
125 71 1
126 13 1
127 43 1
127 65 1
127 70 1
128 43 1
129 61 1
130 62 1
131 30 1
132 70 1
133 48 1
134 12 1
135 51 1
136 70 1
138 70 1
139 52 1
140 18 1
141 52 1
141 71 1
142 62 1
143 45 1
144 52 1
145 60 1
146 71 1
147 54 1
148 20 1
149 70 1
150 44 1
150 52 1
150 60 1
150 68 1
150 72 1
151 54 1
152 38 1
153 58 1
154 18 1
155 30 1
156 21 1
157 45 1
158 51 1
159 45 1
160 12 1
161 38 1
162 70 1
163 62 1
164 55 1
165 70 1
166 25 1
167 71 1
168 52 1
169 25 1
170 5 1
171 45 1
172 30 1
173 4 1
173 13 1
173 25 1
174 38 1
175 51 1
176 71 1
177 24 1
178 12 1
179 70 1
180 62 1
181 70 1
182 43 1
183 45 1
184 54 1
185 4 1
185 20 1
186 54 1
187 38 1
188 24 1
189 62 1
190 34 1
191 32 1
192 38 1
193 62 1
194 12 1
195 12 1
196 13 1
197 45 1
197 52 2
197 71 1
198 71 1
200 20 1
201 41 1
202 52 1
203 61 1
204 38 1
205 48 1
206 71 1
207 70 1
208 13 1
209 70 1
210 70 1
211 70 1
212 4 1
213 70 1
214 38 1
215 52 1
216 20 1
217 43 1
218 45 1
219 4 1
221 63 1
222 54 1
223 68 1
224 51 1
225 54 1
227 48 1
228 24 1
229 39 1
230 52 1
231 52 1
232 18 1
233 30 1
234 30 1
234 68 1
235 52 1
236 52 1
237 48 1
238 38 1
239 2 1
240 70 1
241 70 1
242 52 1
243 60 1
244 32 1
245 51 1
246 52 1
247 52 1
248 70 1
249 41 1
249 70 2
250 5 1
250 30 2
251 44 1
252 54 1
253 48 1
255 63 1
256 13 1
257 52 1
258 51 1
259 2 1
260 70 1
261 38 1
262 38 1
263 54 1
264 45 1
265 30 1
265 52 1
265 65 1
266 70 1
267 30 1
268 30 1
269 58 1
270 49 1
271 49 1
272 12 1
272 41 1
272 52 1
272 68 1
273 45 1
274 14 1
275 9 1
276 60 1
276 70 1
277 43 1
278 45 1
279 60 1
280 60 1
281 44 1
282 32 1
283 71 1
284 38 1
285 31 1
286 52 1
287 44 1
288 38 1
289 6 1
289 20 1
289 49 1
289 52 1
289 58 1
289 70 1
290 58 1
291 25 1
292 38 1
293 12 1
294 45 1
295 20 1
296 6 1
297 34 1
298 61 1
299 9 1
300 70 1
301 52 1
302 45 1
303 44 1
304 45 1
304 70 1
305 70 1
306 71 1
307 52 1
308 51 1
309 45 1
310 71 1
311 20 1
312 48 1
313 20 1
314 43 1
315 13 1
316 71 1
317 51 1
318 71 1
319 45 1
320 31 1
320 71 1
321 20 1
322 37 1
323 68 1
324 62 1
325 51 1
326 38 1
327 71 1
328 34 1
329 48 1
330 33 1
331 18 1
332 30 1
333 12 1
334 70 1
335 13 1
336 51 1
337 62 1
338 56 1
339 2 1
340 38 1
341 24 1
342 51 1
342 52 1
343 52 1
344 54 1
345 70 1
346 12 1
347 48 1
348 38 1
349 62 1
350 71 1
351 54 1
352 45 1
353 38 1
354 49 1
355 70 1
356 68 1
357 52 1
358 52 1
359 38 1
360 51 1
361 52 1
362 7 1
363 18 1
364 70 1
365 61 1
368 38 1
368 60 1
368 70 1
369 9 1
370 54 1
371 62 1
372 55 1
373 62 1
374 48 1
375 62 1
376 45 1
377 9 1
378 38 1
379 25 1
380 4 1
381 70 1
382 70 1
383 62 1
384 70 1
385 52 1
387 45 1
387 54 1
388 71 1
389 54 1
390 12 1
391 58 1
392 38 1
392 71 1
393 71 2
394 47 1
395 20 1
396 70 1
397 65 1
398 20 1
398 24 1
398 44 1
399 55 1
400 60 1
401 4 1
401 52 1
402 45 1
403 52 1
404 62 1
405 4 1
406 43 1
407 45 1
408 68 1
409 5 1
409 12 2
409 30 1
409 38 2
409 43 1
409 49 2
409 51 1
409 62 1
409 71 2
410 19 1
411 38 1
411 70 1
412 67 1
413 52 1
414 52 1
415 70 1
416 9 1
417 71 1
418 52 1
419 41 1
420 71 1
421 71 1
422 71 1
423 48 1
424 45 1
425 45 1
426 20 1
427 52 1
428 51 1
430 20 1
431 62 1
432 71 1
433 18 1
434 25 1
434 45 1
435 56 1
436 63 1
437 70 1
438 71 1
439 61 1
440 34 1
441 52 1
442 30 1
443 12 1
444 20 1
444 43 2
444 46 1
444 71 1
445 5 1
446 10 1
447 71 1
448 45 1
449 34 1
450 54 1
451 71 1
452 71 1
453 71 1
454 52 1
455 52 1
456 9 1
457 5 1
457 12 1
458 62 1
459 30 1
460 70 1
461 61 1
462 70 1
463 70 1
464 6 1
465 20 1
466 70 1
467 52 1
468 71 1
469 43 1
470 33 1
471 18 1
471 34 2
472 38 1
473 38 1
473 43 1
474 71 1
475 71 1
476 51 1
477 61 1
478 38 1
479 38 1
480 71 1
481 51 1
482 52 1
483 51 1
484 48 1
485 41 1
486 38 1
487 20 1
488 48 1
488 62 1
489 59 1
490 45 1
491 4 1
492 52 1
493 49 1
495 71 1
496 18 1
497 12 1
498 71 1
499 32 1
501 59 1
502 71 1
503 58 1
504 70 1
505 25 2
505 40 1
505 69 1
506 52 1
507 38 1
508 52 1
509 34 1
510 6 1
511 70 1
512 45 1
513 62 1
514 70 1
515 71 1
516 71 1
517 70 1
518 12 1
518 15 1
519 70 1
520 51 1
521 13 1
522 25 1
523 58 1
524 72 1
525 52 1
525 68 1
525 70 1
526 70 1
527 70 1
528 41 1
529 49 1
530 38 1
530 52 1
531 71 1
532 61 1
533 38 1
534 20 1
534 48 1
535 71 1
536 52 1
537 13 1
538 48 1
539 68 1
540 38 1
541 52 1
542 38 1
543 2 1
544 9 1
545 4 1
546 2 1
547 70 1
549 38 1
550 70 1
551 68 1
552 60 1
553 45 1
554 43 1
554 70 1
555 39 1
556 31 1
557 41 1
558 40 1
559 62 1
560 2 1
560 43 1
560 51 2
560 65 1
561 70 1
562 4 1
563 49 1
564 70 1
565 58 1
566 23 1
567 55 1
568 70 1
569 38 1
570 4 1
571 63 1
572 71 1
573 70 1
574 4 1
574 6 1
574 62 1
575 38 1
576 59 1
577 4 1
577 38 1
578 43 1
579 48 1
580 25 1
581 37 1
582 12 1
583 45 1
584 48 1
585 12 1
586 18 1
587 48 1
588 40 1
589 52 1
590 43 1
591 62 1
592 13 1
