%%MatrixMarket matrix coordinate real general
%
29551 73 36535                                                    
1 24 1
2 25 1
3 58 1
4 70 1
6 57 1
7 25 1
8 43 1
9 18 1
10 4 1
11 48 1
11 70 1
12 20 1
13 12 1
13 38 1
14 45 1
14 70 1
15 40 1
15 52 1
16 62 1
17 71 1
18 54 1
18 62 1
19 13 1
20 34 1
20 54 1
21 58 1
22 25 1
23 13 1
23 38 1
24 71 1
25 37 1
26 18 1
27 38 1
28 70 1
29 45 1
31 48 1
32 70 1
33 38 1
33 70 1
34 45 1
35 61 1
36 59 1
37 20 1
38 20 1
38 70 2
39 68 1
40 71 1
41 2 1
42 52 1
43 6 1
44 51 1
45 70 1
46 70 1
47 48 1
48 4 1
48 70 1
49 43 1
50 45 1
51 20 1
51 54 1
51 70 1
52 38 1
52 70 1
53 18 1
54 40 1
55 31 1
55 38 1
55 45 1
55 54 1
55 62 1
55 63 1
56 62 1
57 8 1
58 52 1
59 32 1
59 52 2
60 32 1
60 43 1
60 70 1
61 51 1
61 58 1
62 54 1
63 8 1
64 52 1
65 70 1
66 70 1
67 20 1
67 52 1
68 52 1
69 10 2
70 70 1
71 12 1
71 70 1
72 70 1
73 62 1
73 70 1
74 45 1
75 61 1
76 62 1
77 52 1
78 70 1
79 52 1
80 38 1
80 71 1
81 54 1
82 38 1
83 13 1
83 49 1
84 59 1
84 70 1
85 45 1
85 54 1
86 48 1
88 62 1
89 52 1
91 6 1
92 70 1
93 4 1
95 51 1
96 10 1
97 25 1
97 71 1
98 43 1
98 70 1
99 13 1
100 38 1
101 54 1
102 54 1
103 60 1
104 54 1
105 58 1
105 60 1
106 51 1
108 71 1
109 45 1
110 70 1
111 25 1
112 54 1
113 39 1
114 51 1
115 34 1
115 52 1
116 38 1
117 58 1
118 68 1
119 24 1
120 4 1
121 62 1
122 43 1
123 70 1
124 62 1
125 38 1
126 31 1
126 58 1
127 62 1
128 20 1
129 59 1
129 70 1
130 38 1
131 70 1
132 49 1
133 70 1
134 38 1
135 49 1
136 71 2
137 17 1
138 48 1
139 70 1
140 38 1
141 71 1
142 4 1
143 58 1
144 52 1
145 71 2
146 70 1
147 62 1
148 68 1
149 62 1
150 70 1
151 52 1
152 70 1
153 70 1
154 20 1
154 51 1
155 20 1
155 52 1
155 70 1
156 71 1
157 25 1
158 71 1
159 70 1
160 20 1
161 55 1
162 68 1
163 12 1
164 60 1
165 45 1
166 4 1
167 43 1
168 33 1
169 13 1
169 18 1
170 62 1
171 52 1
172 18 2
172 48 1
173 14 1
174 18 1
175 52 1
176 38 1
176 70 1
177 54 1
178 70 1
179 2 1
180 18 1
181 70 1
182 54 1
183 71 1
184 42 1
185 70 1
186 61 1
187 70 1
188 13 1
189 52 1
190 18 1
190 52 1
191 41 1
192 12 1
193 30 1
193 54 1
193 70 1
194 30 1
195 54 1
196 45 1
197 25 1
198 38 1
199 20 1
200 70 1
201 51 1
203 62 1
204 64 1
205 58 1
206 51 1
207 6 1
208 71 1
209 71 1
210 38 1
211 62 1
212 38 1
213 4 1
214 20 1
215 70 1
216 70 1
217 25 1
218 38 1
219 24 1
219 60 1
220 51 1
221 52 1
222 51 1
223 23 1
224 51 1
225 52 1
226 71 1
227 62 1
228 60 1
229 68 1
230 70 1
231 68 1
232 52 1
233 20 1
233 48 1
234 70 1
235 60 1
236 70 1
237 54 1
238 20 1
238 45 1
239 71 1
240 62 1
241 62 1
242 4 1
243 48 1
244 60 1
245 49 1
246 25 1
246 68 1
247 54 1
248 71 1
249 54 1
250 48 1
251 13 1
251 38 1
251 65 1
251 68 1
251 70 3
251 71 1
252 51 1
253 68 2
254 60 1
255 4 1
256 62 1
257 20 1
258 38 1
259 70 1
260 2 1
261 13 1
262 32 1
262 52 1
263 4 1
263 71 1
264 51 1
265 58 1
266 48 1
266 62 1
267 62 1
268 61 1
269 32 1
270 68 1
271 13 1
271 24 1
271 31 1
271 45 2
271 60 1
271 68 1
271 71 2
272 62 1
273 70 1
274 62 1
275 62 1
276 54 1
276 65 1
278 33 1
278 68 1
279 51 1
279 70 2
280 4 2
281 52 1
282 62 1
283 62 1
284 4 1
285 38 1
285 70 1
286 20 1
287 25 1
288 71 1
289 54 1
290 20 1
290 52 1
291 51 1
292 4 1
293 54 1
294 70 2
295 65 1
296 43 1
297 62 1
298 63 1
299 25 1
299 26 1
300 70 1
301 49 1
302 5 1
302 54 1
303 13 1
303 65 1
303 70 1
304 70 1
305 30 1
306 70 1
307 38 1
307 54 1
308 71 1
309 70 1
310 51 1
311 70 1
312 61 1
313 6 1
313 45 1
314 45 1
315 60 1
315 70 1
316 38 1
316 62 1
316 70 2
317 38 1
318 30 1
319 5 1
320 52 1
321 25 1
322 6 1
322 52 1
322 70 1
323 54 1
324 65 1
325 70 2
326 71 1
327 71 1
328 62 1
329 48 1
330 70 1
331 70 1
332 62 1
333 45 1
334 69 1
335 13 1
335 70 1
336 63 1
337 38 1
338 49 1
339 52 1
341 61 1
342 71 1
343 71 1
344 54 1
345 52 1
345 58 2
346 52 1
347 52 1
348 55 1
349 60 1
350 30 1
350 32 1
350 71 1
352 52 1
352 71 1
353 10 1
354 58 1
354 60 1
355 71 1
356 13 1
357 52 1
358 4 1
358 70 1
359 52 1
360 52 1
361 38 1
362 38 1
363 24 1
364 62 1
365 38 1
366 65 1
367 45 1
368 70 1
369 20 1
370 60 1
371 4 1
371 12 1
371 52 2
371 70 1
372 38 1
373 52 1
374 70 1
375 13 1
376 60 1
377 62 1
379 59 1
381 60 1
382 31 1
383 10 1
384 2 1
385 32 1
386 52 1
387 25 1
387 30 1
388 38 1
389 25 1
389 70 1
390 58 1
391 32 1
392 58 1
393 31 1
393 45 1
393 52 1
394 70 1
395 17 1
396 20 1
397 62 1
399 51 1
400 26 1
401 52 2
402 54 1
403 67 1
404 55 1
405 30 1
405 52 1
406 62 1
407 68 1
408 20 1
409 43 1
409 70 1
410 70 1
411 55 1
413 54 1
414 31 1
415 30 1
416 4 1
417 54 1
417 55 1
418 70 1
419 20 1
419 24 1
419 45 1
419 70 1
420 12 1
421 5 1
421 20 1
421 38 1
422 38 1
423 14 1
424 54 1
425 31 1
426 60 1
427 70 1
429 30 1
430 51 1
430 54 1
431 20 1
432 54 1
433 25 1
434 23 1
435 52 1
435 65 1
436 58 1
437 63 1
438 55 1
438 71 1
439 45 1
440 71 1
442 63 1
444 48 1
445 25 1
446 62 1
447 52 1
447 70 1
448 65 1
449 18 1
449 30 1
450 45 1
451 4 1
451 48 1
452 2 1
453 62 1
454 4 1
454 62 1
454 71 1
455 24 1
457 40 1
458 34 1
459 9 1
459 13 1
460 48 1
461 9 1
462 70 1
463 70 2
465 38 1
466 12 1
467 40 1
468 62 1
469 54 1
470 54 1
471 70 1
472 65 1
473 20 1
473 34 1
474 18 2
475 52 1
476 13 1
477 14 1
478 6 1
479 34 1
479 70 1
480 61 1
481 70 1
482 70 1
483 61 1
483 70 1
483 71 1
484 70 1
485 12 1
486 70 2
487 18 1
488 70 1
489 5 1
490 12 2
490 52 2
490 62 3
490 71 1
491 65 1
492 38 2
492 71 1
493 52 1
494 55 1
495 70 1
496 46 1
497 70 2
498 18 1
499 51 1
500 55 1
501 61 1
502 2 1
502 54 1
503 52 1
504 38 1
505 20 1
506 13 1
506 62 1
507 54 1
507 70 1
508 38 1
509 52 1
510 48 1
511 54 1
512 52 1
513 52 1
514 2 1
515 52 1
516 9 1
516 18 1
516 43 1
517 49 1
518 71 1
519 38 1
520 62 1
521 65 1
522 14 1
523 68 1
524 25 1
524 51 1
525 57 1
526 45 1
527 70 1
528 2 1
528 70 1
529 70 1
530 52 1
530 63 1
531 62 1
532 23 1
534 30 1
534 65 1
535 48 1
535 70 1
536 45 1
537 68 1
538 69 1
538 70 1
539 4 1
540 48 1
541 60 1
542 30 1
543 70 1
544 62 1
545 60 1
545 61 1
546 51 1
547 13 1
548 28 1
549 13 1
550 52 1
551 62 1
552 62 1
552 71 1
553 68 1
554 34 1
555 13 1
556 54 1
557 70 1
558 51 1
558 54 1
558 70 1
559 70 1
561 38 1
561 43 1
561 65 1
562 38 1
563 51 1
564 34 1
564 54 1
565 48 1
566 61 1
567 54 1
568 43 1
569 4 1
569 20 1
570 43 1
571 13 1
573 20 1
573 70 1
574 55 1
575 60 1
576 62 1
577 71 1
578 70 1
579 45 1
580 52 1
581 54 1
582 52 1
583 6 1
584 52 1
585 45 1
586 33 1
587 51 1
588 52 1
588 70 1
589 65 1
590 68 1
591 52 1
592 54 1
593 70 1
594 70 1
595 31 1
596 70 1
597 70 1
598 60 1
599 61 1
600 52 1
601 1 1
601 70 1
602 54 1
602 70 1
603 71 1
604 51 1
605 70 1
606 34 1
607 52 1
608 52 1
608 71 1
609 54 1
610 55 1
611 30 1
613 52 1
614 52 1
615 71 2
616 48 1
617 43 1
618 45 1
619 57 1
620 35 1
621 51 1
622 59 1
623 10 1
623 45 1
623 51 2
623 52 1
624 70 1
625 46 1
626 38 1
627 54 1
627 70 1
628 61 1
629 58 1
630 6 1
631 49 1
631 71 1
632 55 1
633 70 1
634 21 1
635 45 1
636 70 1
637 67 1
638 59 1
639 51 1
640 70 1
641 13 1
642 51 1
643 55 1
644 62 1
645 13 1
645 41 1
646 47 1
647 68 1
648 34 1
649 9 1
650 59 1
651 32 1
652 13 1
652 18 1
653 37 1
654 43 1
655 70 2
656 70 1
657 70 1
658 45 1
659 10 1
659 54 1
660 70 1
661 63 1
662 45 1
663 54 1
664 4 1
665 52 1
665 62 1
666 70 2
667 45 1
668 54 1
669 9 1
670 20 1
671 54 1
672 70 1
673 52 1
674 20 1
674 30 2
674 49 1
674 51 1
674 61 2
674 62 1
674 68 1
675 70 1
676 51 1
677 45 1
678 30 1
679 43 1
680 51 1
681 13 1
682 70 1
683 52 1
684 52 1
685 54 1
686 10 1
686 26 1
687 58 1
688 60 1
689 20 1
690 61 1
691 54 1
692 70 1
693 71 1
694 20 1
695 62 1
696 51 1
696 69 1
697 70 1
698 71 1
699 2 1
700 70 1
701 70 2
702 30 1
703 39 1
704 13 1
704 70 2
705 52 1
706 12 1
707 38 1
708 70 1
709 62 1
710 43 1
711 9 1
712 71 1
713 70 1
714 45 1
715 70 1
716 63 1
717 38 1
718 34 1
719 48 1
719 54 1
720 52 1
720 70 1
721 68 1
722 55 1
723 30 1
724 25 1
725 38 1
726 43 1
727 54 1
728 18 1
728 60 1
728 61 1
728 62 1
729 51 1
730 62 1
731 25 1
732 62 1
733 52 1
733 70 1
734 34 1
734 68 1
735 58 1
736 4 1
736 34 1
737 70 1
738 38 1
738 68 1
739 54 1
740 48 1
741 70 1
742 25 1
743 36 1
743 42 1
744 59 2
745 52 1
745 54 1
746 38 1
746 65 1
747 2 1
748 62 1
749 4 1
750 30 1
751 30 1
752 38 1
753 54 1
753 70 1
754 70 1
755 71 1
756 38 1
757 70 1
758 70 1
759 18 1
760 30 1
761 45 1
762 49 1
763 62 1
764 54 1
765 71 1
766 70 1
767 45 1
768 71 1
769 71 1
770 62 1
771 52 1
772 20 1
773 10 1
775 69 1
776 54 1
777 4 1
778 4 1
778 25 1
779 4 1
780 70 1
781 52 1
782 5 1
782 58 1
783 20 1
784 70 1
785 62 1
785 70 1
786 52 1
787 62 1
788 4 1
789 6 1
790 70 1
791 38 1
791 71 1
792 51 1
793 70 1
794 70 2
795 51 1
796 24 1
797 38 1
798 38 1
799 38 1
800 24 1
800 51 2
801 54 1
803 73 1
804 68 1
805 45 1
806 10 1
807 38 1
808 70 1
809 62 1
810 60 1
811 62 1
812 33 1
813 71 1
814 71 1
815 4 1
816 45 1
816 70 1
817 62 1
818 20 1
819 45 1
820 26 1
820 30 2
821 52 1
822 51 1
822 54 1
822 70 1
823 33 1
823 55 1
824 32 1
824 51 1
825 12 1
825 70 1
826 31 1
827 4 1
827 24 1
827 61 1
828 48 1
829 13 1
829 52 1
830 38 1
830 52 1
831 45 1
832 70 1
833 13 1
834 71 1
835 49 1
835 54 1
836 69 1
837 70 1
838 25 1
839 70 1
840 52 1
840 54 1
840 70 1
841 52 1
842 62 1
842 70 1
843 54 1
843 62 1
844 49 1
845 49 1
846 48 1
847 70 1
848 45 1
848 70 1
849 70 1
850 60 1
851 60 1
852 4 1
854 9 1
855 71 1
856 61 1
857 70 1
858 51 1
859 65 1
860 62 1
861 6 1
861 51 2
861 60 1
861 62 2
861 68 1
861 70 1
861 71 1
862 38 1
862 71 1
863 70 1
864 2 1
864 38 2
864 52 3
864 55 1
864 62 1
865 6 1
866 70 1
867 70 1
868 70 1
869 52 1
870 25 1
871 52 1
872 48 1
873 23 1
873 54 1
874 4 1
875 25 1
876 25 1
877 45 1
877 65 1
878 68 1
879 31 1
880 62 1
881 51 1
882 51 1
883 62 1
884 51 1
885 38 1
885 62 1
886 48 1
887 70 1
888 30 1
889 70 1
890 51 1
890 70 1
891 6 1
892 65 1
893 12 1
893 70 2
894 43 1
895 62 1
896 60 1
897 10 2
897 70 1
898 68 1
899 20 1
900 62 1
900 70 1
901 4 1
902 13 1
903 61 1
904 39 1
905 51 1
906 62 1
907 38 1
907 54 1
908 34 1
909 68 1
910 4 1
911 70 1
912 62 1
912 65 1
913 52 1
915 38 2
916 70 1
917 34 1
918 70 1
919 45 1
919 62 1
920 25 1
921 32 1
923 4 1
923 36 1
924 52 1
924 58 1
925 54 1
926 68 1
927 25 1
928 54 1
929 70 1
930 30 1
932 34 1
932 71 1
933 62 1
934 58 1
935 20 1
936 45 1
937 4 1
937 71 1
938 70 1
939 70 1
940 38 1
941 45 1
941 70 1
942 34 1
943 70 1
944 2 1
944 54 1
945 52 1
946 70 1
947 60 1
948 52 1
949 45 1
950 51 1
950 68 1
951 54 1
952 70 1
953 31 1
954 52 1
955 38 1
956 52 1
957 31 1
958 4 1
959 71 1
960 51 1
961 71 1
962 63 1
963 6 1
964 70 1
964 71 1
965 34 1
966 51 1
967 25 1
968 54 1
968 70 1
969 70 1
970 6 1
971 4 1
971 70 1
972 52 1
973 38 1
974 38 1
975 70 1
976 45 1
977 52 1
978 70 1
979 20 1
980 52 1
981 20 1
981 70 1
982 12 1
983 62 1
984 68 1
985 4 1
986 54 1
987 49 1
988 38 1
989 45 1
990 4 1
991 18 1
992 58 1
992 60 1
993 63 1
994 20 1
995 70 1
996 4 1
997 58 1
998 18 1
999 38 1
999 70 1
1000 18 1
1001 68 1
1002 54 1
1003 6 1
1004 32 1
1004 52 1
1005 17 1
1006 30 1
1007 20 1
1008 70 1
1009 30 1
1010 54 1
1011 58 1
1012 25 1
1014 38 1
1015 70 1
1016 40 1
1017 6 1
1018 38 1
1018 70 1
1019 24 1
1020 30 1
1021 60 2
1022 41 1
1023 51 1
1024 62 1
1025 61 1
1026 43 1
1027 32 1
1027 70 1
1028 62 1
1029 52 1
1030 18 1
1030 45 1
1031 52 1
1031 62 1
1032 54 1
1033 32 1
1034 48 1
1035 4 1
1036 70 1
1037 30 2
1037 60 1
1038 39 1
1038 48 1
1039 30 1
1040 70 1
1041 9 1
1041 45 1
1042 61 1
1043 70 1
1044 61 1
1045 70 1
1046 21 1
1046 45 1
1047 54 1
1047 58 1
1047 70 1
1048 33 1
1048 59 1
1049 4 2
1049 63 1
1050 38 1
1051 70 1
1052 38 1
1053 48 1
1054 54 1
1055 14 1
1055 70 1
1056 54 1
1057 70 2
1058 54 1
1059 70 1
1060 51 1
1061 54 1
1062 54 1
1063 48 1
1064 62 1
1065 71 1
1066 52 1
1067 58 1
1068 45 1
1069 61 1
1069 71 1
1070 70 1
1071 63 1
1072 70 1
1073 38 1
1073 54 1
1074 9 1
1075 70 1
1076 38 1
1077 31 1
1077 62 1
1078 70 1
1079 62 1
1080 51 1
1081 52 1
1082 4 1
1083 48 1
1084 38 1
1085 5 1
1086 68 1
1087 20 1
1087 38 1
1087 71 1
1088 54 1
1088 70 1
1089 51 1
1090 45 2
1091 34 1
1092 34 1
1093 25 2
1094 34 1
1094 70 1
1095 70 1
1096 34 1
1097 51 1
1098 52 1
1099 38 1
1100 59 1
1101 14 1
1102 54 1
1103 48 1
1104 68 1
1105 5 1
1105 43 1
1106 43 1
1107 57 1
1108 52 1
1109 33 1
1110 32 1
1111 60 1
1112 17 1
1113 49 1
1114 25 1
1114 43 1
1115 34 1
1116 30 1
1117 9 1
1118 71 1
1119 55 1
1120 17 1
1121 42 1
1122 52 2
1124 38 1
1124 71 1
1125 58 1
1126 58 1
1127 30 1
1128 34 1
1128 52 1
1128 54 1
1129 51 1
1129 60 1
1130 43 1
1130 70 1
1131 43 2
1132 62 1
1133 32 1
1134 23 1
1134 31 2
1134 34 1
1134 49 1
1134 52 1
1134 70 1
1135 71 1
1136 26 1
1137 30 1
1138 70 1
1139 68 1
1140 70 1
1141 12 1
1142 54 1
1143 37 1
1143 71 1
1144 70 1
1145 62 1
1146 30 1
1146 33 1
1146 43 1
1146 45 1
1146 60 1
1146 62 1
1147 6 1
1148 55 1
1149 30 1
1149 44 1
1150 60 1
1151 62 1
1152 38 1
1152 63 1
1153 48 1
1153 69 1
1153 70 1
1153 71 1
1154 70 1
1155 52 1
1156 33 1
1157 2 1
1157 18 1
1158 25 1
1159 52 1
1160 70 1
1161 12 1
1162 70 1
1163 65 1
1164 9 1
1165 71 1
1166 4 1
1167 12 1
1167 38 1
1168 38 1
1169 70 1
1170 52 1
1171 43 1
1171 45 1
1172 62 1
1173 48 1
1174 70 1
1175 48 1
1176 51 1
1177 62 1
1178 33 1
1179 48 1
1180 52 1
1181 45 1
1182 71 1
1183 45 1
1184 4 1
1185 13 1
1186 13 1
1187 68 1
1188 25 1
1189 7 1
1190 45 1
1191 45 1
1192 70 1
1193 52 1
1194 70 1
1195 70 1
1196 52 1
1197 62 1
1198 45 1
1199 20 1
1199 62 1
1200 48 1
1201 34 2
1202 34 1
1202 65 1
1203 70 1
1204 70 1
1205 60 1
1206 70 1
1207 9 1
1207 20 1
1208 71 1
1209 70 1
1209 71 1
1210 54 1
1211 58 1
1212 71 1
1213 58 1
1214 45 1
1215 70 1
1216 60 1
1217 70 1
1218 65 1
1218 70 1
1219 2 1
1219 30 2
1219 31 1
1219 36 1
1219 37 1
1219 65 2
1219 67 1
1219 70 1
1220 48 1
1221 60 1
1222 59 1
1223 70 1
1224 71 1
1225 55 1
1226 4 1
1227 38 1
1228 70 1
1229 70 1
1230 10 1
1231 61 1
1232 54 1
1233 5 1
1233 18 1
1233 48 1
1233 51 1
1233 54 1
1233 59 1
1233 67 1
1233 70 1
1233 71 3
1234 31 1
1235 59 1
1236 16 2
1236 32 1
1236 33 1
1236 45 1
1236 51 2
1237 25 1
1238 70 1
1239 71 1
1240 6 1
1240 30 1
1241 18 1
1242 68 1
1243 48 1
1244 13 1
1244 54 1
1245 20 1
1246 52 1
1247 49 1
1248 62 1
1249 45 1
1250 4 1
1251 51 1
1252 70 1
1253 6 1
1254 70 1
1255 58 1
1256 13 1
1257 52 1
1258 12 1
1258 48 1
1259 71 1
1260 38 1
1261 25 1
1262 70 1
1263 54 1
1264 51 1
1265 20 1
1266 70 1
1267 70 1
1268 52 1
1269 10 1
1269 13 1
1269 70 1
1270 61 1
1271 70 1
1271 71 1
1272 38 1
1273 70 2
1274 54 1
1275 54 1
1276 18 1
1277 30 2
1278 49 1
1278 58 1
1279 38 2
1280 60 1
1281 55 1
1282 61 1
1283 38 2
1284 30 1
1285 45 1
1286 45 1
1287 52 1
1288 48 1
1288 71 1
1289 71 1
1290 71 1
1291 61 2
1291 71 2
1292 45 1
1292 71 1
1293 64 1
1294 62 1
1295 68 1
1295 70 1
1296 62 1
1297 34 1
1298 13 1
1298 18 1
1298 20 1
1298 38 1
1298 55 1
1298 59 1
1298 60 1
1298 62 1
1298 67 1
1298 70 2
1298 71 3
1299 2 1
1299 38 1
1299 41 1
1299 52 1
1299 61 1
1299 62 3
1299 63 1
1299 65 2
1299 70 1
1299 71 1
1300 18 1
1300 20 1
1300 52 2
1300 54 2
1300 70 1
1300 71 2
1301 9 1
1301 20 1
1301 34 2
1301 38 1
1301 43 1
1301 45 1
1301 52 2
1301 54 2
1301 71 1
1302 20 1
1303 41 1
1304 70 1
1305 5 1
1305 38 1
1306 68 1
1307 71 1
1308 25 1
1310 52 1
1311 70 1
1312 32 1
1312 45 1
1313 52 1
1314 70 1
1315 51 1
1316 34 1
1317 34 1
1318 63 1
1319 18 1
1320 70 1
1321 30 1
1322 71 1
1323 71 1
1324 60 2
1325 62 1
1326 61 1
1327 70 1
1328 70 1
1329 71 1
1330 30 1
1331 43 1
1332 70 1
1333 4 1
1333 52 1
1334 39 1
1335 24 1
1336 20 1
1336 39 1
1337 23 1
1338 45 1
1339 31 1
1340 58 1
1340 60 1
1341 38 1
1341 52 1
1341 54 1
1341 68 1
1341 69 1
1341 70 1
1342 54 1
1343 30 1
1344 45 1
1345 70 1
1346 70 1
1347 2 1
1347 45 1
1348 52 1
1349 54 1
1349 70 1
1350 30 1
1351 54 1
1352 65 1
1353 49 1
1353 52 1
1354 60 1
1355 62 1
1356 70 1
1357 14 1
1358 51 1
1359 52 1
1360 48 1
1361 52 1
1362 12 1
1363 10 1
1364 43 1
1364 70 1
1365 70 1
1365 71 1
1366 62 1
1367 62 1
1367 70 1
1368 60 2
1369 52 1
1370 38 1
1370 54 1
1371 51 1
1372 54 1
1373 70 2
1374 70 1
1375 62 1
1376 41 1
1376 71 1
1377 48 1
1378 68 1
1379 62 1
1380 13 1
1381 41 1
1382 70 1
1383 18 1
1384 13 1
1384 54 1
1385 18 1
1386 4 1
1387 38 1
1388 60 1
1389 13 1
1390 6 1
1390 70 1
1391 38 1
1392 30 1
1393 33 1
1393 42 1
1394 65 1
1395 52 1
1396 38 1
1396 43 1
1396 48 1
1396 61 1
1397 13 1
1398 62 1
1399 55 1
1400 30 1
1401 30 1
1402 4 1
1403 38 1
1404 34 1
1405 45 1
1406 12 1
1407 24 1
1408 30 1
1409 62 1
1411 48 1
1412 71 1
1413 60 1
1414 71 1
1415 45 1
1415 59 1
1416 43 1
1416 54 1
1418 30 1
1419 40 1
1420 17 1
1420 22 1
1421 52 1
1422 58 1
1423 51 1
1424 52 1
1425 37 1
1425 58 1
1426 51 1
1427 52 1
1428 31 1
1429 52 1
1430 20 1
1431 71 1
1432 54 1
1432 68 1
1433 55 1
1434 60 1
1435 70 1
1436 54 1
1437 54 1
1438 13 1
1439 62 1
1440 51 2
1440 54 1
1440 70 1
1441 41 1
1442 60 1
1442 62 1
1443 61 1
1443 62 1
1444 61 1
1445 52 1
1446 41 1
1447 46 1
1447 58 1
1448 38 1
1449 48 1
1450 70 1
1451 45 1
1452 68 1
1453 10 1
1453 25 1
1453 48 1
1454 52 1
1456 58 1
1457 6 1
1458 43 1
1459 30 1
1459 45 1
1460 38 1
1461 10 1
1462 52 1
1463 49 1
1464 48 1
1465 13 1
1465 49 1
1466 70 1
1467 9 1
1467 13 1
1468 70 1
1469 70 1
1470 43 1
1471 30 1
1471 58 1
1472 38 2
1473 4 1
1473 13 1
1473 45 1
1474 48 1
1474 58 1
1475 31 1
1476 14 1
1476 30 3
1476 31 2
1476 32 1
1476 35 1
1476 39 1
1476 43 1
1476 52 1
1476 60 1
1476 68 2
1476 70 1
1477 45 1
1478 70 1
1479 30 1
1480 52 1
1481 70 1
1482 71 1
1483 30 1
1484 61 1
1485 70 1
1486 54 1
1487 4 1
1487 70 1
1488 59 1
1489 18 1
1489 33 1
1490 51 1
1491 49 1
1492 12 1
1493 62 1
1494 62 1
1495 62 1
1496 2 1
1497 55 1
1498 38 1
1499 71 1
1500 12 2
1500 34 1
1500 52 1
1500 59 1
1501 62 1
1502 5 1
1503 70 1
1504 58 1
1505 30 1
1506 54 1
1507 70 1
1508 31 1
1509 51 1
1510 68 1
1511 6 1
1511 31 1
1511 32 1
1511 54 1
1511 68 1
1511 70 2
1511 71 1
1512 71 1
1513 45 1
1514 12 1
1514 30 1
1514 45 2
1514 48 1
1514 52 2
1514 54 1
1514 62 1
1514 68 2
1514 70 4
1515 70 1
1516 24 1
1516 31 1
1516 34 1
1516 47 1
1516 51 1
1516 59 1
1516 70 1
1517 12 2
1517 14 1
1517 45 1
1517 52 1
1517 60 1
1517 71 1
1518 54 1
1519 13 1
1520 70 1
1521 15 1
1521 34 1
1522 24 2
1524 38 1
1525 13 1
1526 67 1
1527 4 1
1528 70 1
1529 43 1
1530 40 1
1531 51 1
1532 47 1
1532 49 1
1532 54 1
1532 55 1
1532 70 1
1533 34 1
1534 12 1
1535 38 1
1536 18 1
1537 51 1
1538 5 1
1540 70 1
1542 65 1
1543 69 1
1544 51 1
1545 2 1
1546 68 1
1547 62 1
1548 4 1
1549 49 1
1550 12 1
1550 24 1
1550 45 2
1550 52 1
1550 55 1
1550 65 1
1550 68 1
1550 70 2
1550 71 1
1551 20 1
1551 45 1
1551 62 1
1552 65 1
1553 45 1
1554 38 2
1554 58 1
1554 70 1
1555 38 1
1556 10 1
1556 30 1
1556 32 1
1556 43 1
1556 45 2
1556 51 1
1556 62 1
1557 60 1
1558 62 1
1559 45 1
1560 5 1
1560 30 2
1560 31 1
1560 45 1
1560 51 2
1560 52 1
1560 54 1
1560 59 1
1560 61 1
1560 70 1
1561 45 1
1562 70 1
1563 4 1
1563 45 1
1564 14 1
1565 38 1
1565 62 1
1565 63 1
1566 68 1
1567 5 1
1567 6 1
1567 12 1
1567 38 1
1567 43 1
1567 60 1
1567 70 3
1568 2 2
1568 14 1
1568 45 2
1568 52 1
1568 62 1
1568 71 1
1569 12 1
1569 38 1
1569 48 2
1570 51 1
1570 57 1
1571 38 2
1571 45 1
1571 47 1
1571 49 1
1571 50 1
1571 70 2
1572 59 1
1573 40 1
1573 48 1
1573 70 2
1574 12 1
1575 25 1
1576 30 1
1576 62 1
1576 70 2
1577 51 1
1578 34 1
1578 40 1
1578 62 1
1578 63 1
1578 70 1
1578 71 1
1579 1 5
1579 2 136
1579 3 5
1579 4 179
1579 5 43
1579 6 78
1579 7 5
1579 9 109
1579 10 31
1579 11 3
1579 12 150
1579 13 178
1579 14 29
1579 15 6
1579 16 1
1579 17 23
1579 18 102
1579 19 1
1579 20 281
1579 21 22
1579 22 1
1579 23 49
1579 24 84
1579 25 65
1579 26 21
1579 27 3
1579 28 3
1579 30 388
1579 31 211
1579 32 96
1579 33 42
1579 34 192
1579 35 2
1579 36 1
1579 37 3
1579 38 618
1579 39 48
1579 40 45
1579 41 105
1579 42 6
1579 43 154
1579 44 49
1579 45 685
1579 46 25
1579 47 20
1579 48 327
1579 49 201
1579 50 7
1579 51 467
1579 52 735
1579 53 1
1579 54 409
1579 55 134
1579 56 3
1579 57 14
1579 58 95
1579 59 146
1579 60 164
1579 61 91
1579 62 1155
1579 63 141
1579 64 2
1579 65 120
1579 66 1
1579 67 21
1579 68 599
1579 69 26
1579 70 1466
1579 71 843
1579 73 3
1580 2 1
1580 34 1
1580 45 1
1580 48 1
1580 65 1
1580 68 1
1581 31 2
1582 38 1
1583 70 1
1584 2 1
1584 34 1
1584 52 1
1584 62 1
1584 65 1
1584 70 1
1585 32 1
1585 62 1
1586 12 1
1586 20 1
1586 23 1
1586 31 1
1586 41 1
1586 45 1
1586 48 1
1586 49 2
1586 54 1
1586 60 1
1586 62 1
1586 71 2
1587 30 2
1587 48 1
1587 71 1
1588 2 1
1588 12 1
1588 39 1
1588 52 1
1588 59 1
1588 61 1
1588 62 1
1588 68 1
1588 70 1
1589 30 1
1590 62 1
1591 68 1
1592 62 1
1593 54 1
1594 44 1
1595 70 2
1596 23 1
1597 20 1
1597 71 1
1598 70 2
1599 72 1
1600 9 1
1601 68 1
1602 62 1
1603 52 1
1603 70 1
1604 67 1
1605 30 1
1606 62 1
1607 62 1
1608 61 1
1609 70 1
1610 26 1
1610 43 1
1611 70 1
1612 70 1
1613 43 1
1613 54 1
1613 62 1
1613 70 1
1614 70 1
1615 58 1
1616 25 1
1617 39 1
1617 70 1
1618 70 1
1619 41 1
1620 33 1
1621 60 1
1622 52 1
1623 38 1
1624 12 1
1625 54 1
1626 24 1
1627 34 1
1628 30 1
1628 55 1
1629 62 1
1630 6 1
1630 20 1
1630 38 1
1630 62 1
1630 70 1
1631 13 1
1631 54 1
1631 70 1
1632 38 1
1633 48 1
1634 23 1
1634 30 1
1635 6 1
1636 49 1
1636 62 1
1637 49 1
1638 45 1
1639 38 1
1639 70 1
1640 38 1
1641 54 2
1642 43 1
1643 33 1
1644 54 1
1644 62 1
1645 4 1
1645 54 1
1646 62 1
1647 54 1
1648 25 1
1649 9 1
1649 68 1
1650 52 1
1651 38 1
1651 48 1
1652 27 1
1653 6 2
1654 70 1
1655 71 1
1656 38 1
1657 70 1
1658 18 1
1658 70 1
1659 38 1
1659 70 1
1660 55 1
1661 52 1
1662 62 1
1663 70 1
1664 52 1
1665 25 1
1665 52 1
1666 25 1
1667 31 1
1667 68 1
1668 71 1
1669 38 1
1670 60 1
1671 54 1
1672 60 1
1673 7 1
1673 62 1
1674 70 2
1675 43 1
1676 43 1
1677 33 1
1678 70 1
1679 30 1
1680 17 1
1681 52 1
1682 70 1
1683 34 1
1684 32 1
1685 48 1
1685 70 1
1686 60 1
1687 58 1
1688 61 1
1689 6 1
1690 38 1
1690 68 1
1691 25 1
1692 6 1
1692 45 1
1692 48 1
1693 70 1
1694 52 1
1695 70 1
1696 20 1
1697 48 1
1698 6 1
1699 60 1
1700 51 1
1701 59 1
1702 9 1
1703 9 1
1704 6 1
1705 32 1
1706 70 1
1707 13 1
1707 70 1
1708 4 1
1708 52 1
1709 71 1
1710 48 1
1711 54 1
1712 68 1
1713 32 1
1714 13 1
1714 32 1
1715 12 1
1716 40 1
1716 65 1
1717 5 1
1718 70 1
1719 49 1
1720 41 1
1721 43 1
1722 52 1
1723 70 1
1723 71 1
1724 25 1
1725 52 1
1725 71 1
1726 18 1
1726 32 1
1727 18 1
1728 62 2
1729 30 1
1730 52 1
1731 45 1
1732 62 1
1733 38 1
1734 62 1
1735 54 1
1736 43 1
1736 62 1
1737 54 1
1738 46 1
1739 68 1
1739 71 1
1740 45 1
1741 25 1
1742 71 1
1743 70 1
1744 70 1
1745 58 1
1746 4 1
1746 40 2
1747 45 1
1748 63 1
1749 13 1
1750 5 1
1750 68 1
1750 70 2
1751 4 2
1751 52 1
1752 4 1
1753 52 1
1754 38 1
1754 52 1
1755 30 1
1756 70 1
1757 70 1
1758 49 1
1758 54 1
1759 32 1
1760 68 1
1761 52 1
1762 39 1
1763 70 1
1764 71 1
1765 70 1
1766 68 1
1767 68 1
1768 68 1
1769 45 1
1770 55 1
1771 71 1
1772 20 1
1773 62 1
1774 61 1
1775 4 1
1775 41 1
1775 52 1
1775 70 1
1775 71 1
1776 70 1
1777 59 1
1778 59 1
1779 70 1
1780 70 1
1781 68 1
1782 38 1
1783 52 1
1784 9 1
1785 20 1
1785 25 1
1785 38 1
1785 70 1
1786 45 1
1787 24 1
1788 55 1
1789 70 1
1790 12 1
1791 49 1
1792 68 1
1793 30 1
1794 71 1
1795 6 1
1796 48 1
1797 18 1
1798 25 1
1799 70 1
1800 5 1
1801 18 1
1801 71 1
1803 38 1
1804 31 1
1805 18 1
1806 70 1
1807 72 1
1808 31 1
1809 18 1
1809 70 1
1810 70 1
1811 57 1
1812 61 1
1813 38 1
1814 52 1
1815 62 1
1816 2 1
1817 54 1
1818 52 1
1819 55 1
1820 20 1
1821 24 1
1821 46 1
1822 51 1
1823 70 1
1824 70 1
1825 4 1
1825 70 1
1827 48 1
1828 13 1
1829 48 1
1830 17 1
1830 45 1
1831 40 1
1832 52 2
1833 60 1
1834 24 1
1834 58 1
1835 30 1
1836 62 1
1837 49 1
1838 71 1
1839 30 1
1840 17 1
1841 43 1
1841 60 1
1842 25 1
1843 70 1
1844 20 1
1845 71 1
1846 38 1
1847 70 1
1848 60 1
1849 49 1
1850 60 1
1851 45 1
1851 70 1
1852 45 1
1853 70 1
1854 70 1
1855 6 1
1856 4 1
1856 25 1
1857 54 1
1858 52 1
1859 20 1
1860 62 1
1861 62 1
1862 59 1
1863 34 1
1864 61 1
1865 12 1
1866 70 1
1867 51 1
1868 54 1
1869 30 1
1870 13 1
1870 71 1
1871 25 1
1871 71 1
1872 34 1
1873 54 1
1873 71 1
1874 70 1
1875 13 1
1876 20 1
1877 68 1
1877 70 1
1878 45 1
1879 70 1
1880 54 1
1881 52 1
1882 70 1
1883 63 1
1884 52 1
1885 58 1
1886 62 1
1887 2 1
1888 51 1
1889 63 1
1890 38 1
1891 45 1
1892 2 1
1893 58 1
1893 70 1
1894 68 1
1895 4 1
1895 10 1
1895 12 2
1895 24 1
1895 30 20
1895 31 7
1895 32 1
1895 38 1
1895 40 1
1895 45 1
1895 46 1
1895 52 1
1895 54 2
1895 61 2
1895 62 1
1895 65 1
1895 68 1
1895 70 1
1896 52 1
1897 13 1
1897 31 1
1897 54 1
1897 58 1
1897 61 1
1897 62 1
1899 62 1
1900 70 1
1901 52 1
1902 51 1
1902 70 1
1903 20 1
1904 70 1
1905 13 1
1906 70 1
1907 54 1
1908 62 1
1909 45 1
1910 31 1
1911 43 1
1912 52 1
1913 25 1
1914 54 1
1915 51 1
1915 54 1
1916 70 1
1917 52 1
1918 70 1
1919 70 2
1920 71 1
1921 32 1
1922 10 1
1923 33 1
1924 70 1
1925 70 1
1926 70 1
1927 48 1
1928 34 1
1928 48 1
1928 71 1
1929 38 1
1929 54 1
1930 71 1
1931 9 1
1932 70 1
1933 54 1
1934 46 1
1934 58 1
1935 13 1
1936 51 1
1936 62 1
1937 4 1
1937 58 1
1938 60 1
1939 63 1
1940 25 1
1941 4 1
1942 31 1
1943 34 1
1944 72 1
1945 70 1
1946 32 1
1947 4 1
1948 62 1
1949 20 1
1950 26 1
1951 12 1
1951 59 1
1952 30 1
1953 45 1
1954 44 1
1955 54 1
1956 54 1
1958 51 2
1959 71 1
1960 62 1
1961 18 1
1962 18 1
1962 20 1
1962 70 1
1963 38 1
1964 13 1
1965 4 1
1965 52 1
1966 30 1
1967 69 1
1968 70 1
1969 40 1
1969 51 1
1970 62 1
1971 38 1
1972 70 1
1973 71 1
1974 70 1
1975 54 1
1976 71 1
1977 49 1
1977 70 1
1978 12 1
1980 70 1
1981 18 1
1981 32 1
1982 30 1
1983 9 1
1984 9 1
1985 60 1
1986 62 1
1987 32 1
1988 5 1
1989 18 1
1989 70 1
1990 70 1
1991 40 1
1992 9 1
1993 24 1
1993 45 1
1993 52 1
1993 65 1
1994 2 1
1995 52 1
1996 60 1
1997 41 1
1997 65 1
1998 62 1
1999 70 1
2000 2 1
2000 43 1
2001 13 1
2002 62 1
2003 20 1
2004 43 1
2005 68 1
2006 70 1
2007 34 1
2007 52 1
2008 52 1
2009 26 1
2010 56 1
2011 62 1
2012 31 1
2013 4 1
2014 69 1
2015 38 1
2015 54 1
2015 58 1
2016 43 1
2017 54 1
2018 38 1
2019 2 1
2020 69 1
2021 45 1
2021 54 1
2022 51 1
2022 54 1
2023 70 1
2024 70 1
2025 9 1
2026 63 1
2027 60 1
2028 2 1
2029 30 1
2030 32 1
2030 49 1
2030 63 1
2031 38 1
2032 6 1
2033 54 1
2034 69 1
2035 62 1
2036 62 1
2037 20 1
2038 38 1
2039 24 1
2039 70 1
2040 71 1
2041 10 1
2042 70 1
2043 30 1
2044 51 1
2044 70 2
2045 9 1
2046 63 1
2047 70 1
2048 62 1
2049 62 1
2050 31 1
2050 71 1
2051 54 1
2052 32 1
2053 71 1
2054 49 1
2055 71 1
2056 54 1
2057 62 1
2057 71 1
2058 54 1
2059 54 1
2060 8 1
2060 38 1
2060 70 1
2061 7 1
2062 55 1
2063 4 1
2064 52 1
2065 45 1
2066 70 1
2067 24 1
2068 52 1
2069 13 1
2070 70 1
2071 45 1
2072 45 1
2073 49 1
2074 45 1
2075 70 2
2076 70 2
2077 68 1
2078 54 1
2079 51 1
2080 60 1
2081 52 1
2082 70 1
2083 45 1
2084 65 1
2085 48 1
2086 52 1
2086 68 1
2087 25 1
2088 18 1
2088 43 1
2089 70 1
2090 13 1
2091 70 1
2092 6 1
2093 54 1
2094 38 1
2095 62 1
2096 54 1
2097 71 1
2098 20 1
2098 70 1
2099 24 1
2100 18 1
2100 70 1
2100 71 1
2101 6 1
2102 70 1
2103 51 1
2104 45 1
2104 60 1
2105 32 1
2106 54 1
2107 70 1
2108 2 1
2109 68 1
2110 38 1
2111 49 1
2112 40 1
2114 18 1
2115 48 1
2116 49 1
2116 58 1
2116 70 1
2116 71 1
2117 54 1
2118 24 1
2118 51 1
2119 54 1
2120 10 1
2121 70 1
2122 70 1
2123 70 1
2124 13 1
2125 52 1
2126 54 1
2127 51 1
2128 52 1
2129 46 1
2130 52 1
2131 20 1
2132 70 1
2133 15 1
2134 61 1
2135 49 1
2136 34 1
2136 58 1
2137 13 1
2138 70 1
2139 63 1
2140 12 1
2141 13 1
2142 70 1
2143 24 1
2143 52 1
2144 62 1
2145 62 1
2146 20 1
2146 38 1
2147 65 1
2149 45 1
2150 43 1
2151 32 1
2153 71 1
2154 58 1
2155 52 2
2155 71 1
2156 32 1
2157 54 1
2158 70 1
2160 4 1
2161 60 1
2162 45 1
2162 58 1
2163 71 1
2164 52 1
2164 70 1
2164 71 1
2165 70 1
2166 43 1
2167 70 1
2168 65 1
2169 20 1
2170 70 1
2171 48 1
2171 49 1
2171 60 1
2172 70 1
2173 51 1
2173 52 1
2174 48 1
2175 52 1
2176 51 1
2177 13 1
2178 2 1
2179 23 1
2180 70 1
2181 54 1
2182 70 1
2183 30 1
2183 54 1
2184 70 1
2185 70 1
2186 52 1
2186 68 1
2187 45 1
2187 51 1
2188 30 1
2189 70 1
2190 62 1
2191 58 1
2191 70 2
2192 2 1
2193 26 1
2193 70 1
2194 34 1
2195 43 1
2196 20 1
2197 44 1
2198 4 1
2199 51 1
2200 13 1
2201 43 1
2202 62 1
2203 18 1
2204 33 1
2205 70 1
2206 71 1
2207 4 1
2208 34 1
2208 71 1
2209 70 1
2210 49 1
2211 70 2
2213 62 1
2214 20 1
2215 71 1
2216 70 1
2217 30 1
2218 55 1
2219 60 1
2220 12 1
2221 58 1
2222 52 1
2223 68 1
2224 43 1
2224 52 1
2225 38 1
2226 49 1
2227 54 1
2228 12 1
2228 45 1
2228 49 1
2229 41 1
2230 6 1
2231 54 1
2232 2 1
2233 55 1
2234 54 1
2234 62 1
2235 30 1
2235 52 1
2235 70 1
2236 38 1
2237 68 1
2237 70 1
2238 6 1
2239 51 1
2239 70 1
2240 52 1
2241 70 1
2242 62 1
2243 70 1
2244 45 1
2245 54 1
2246 68 1
2247 45 1
2248 38 1
2249 70 1
2250 54 1
2251 71 1
2252 52 1
2253 12 1
2254 20 1
2255 62 1
2256 61 1
2257 60 1
2258 26 1
2259 54 1
2260 13 1
2261 18 1
2261 34 1
2261 68 1
2262 45 1
2262 70 1
2263 41 1
2264 32 1
2265 70 1
2266 43 1
2267 30 1
2268 38 1
2269 9 1
2270 62 1
2271 25 1
2272 45 1
2272 70 1
2273 62 1
2274 40 1
2274 70 1
2275 38 2
2276 55 1
2277 70 1
2278 25 1
2278 45 1
2279 51 1
2280 54 1
2280 70 1
2281 60 1
2282 25 1
2282 52 1
2283 52 1
2284 17 1
2284 48 1
2285 2 1
2286 43 1
2286 44 1
2287 9 1
2288 43 1
2289 70 1
2290 68 1
2291 20 1
2292 71 1
2293 18 1
2294 51 1
2295 67 1
2296 38 2
2297 54 1
2298 38 1
2298 63 1
2299 45 1
2301 20 1
2302 18 1
2303 38 1
2304 52 1
2305 43 1
2306 70 1
2307 48 1
2308 38 1
2309 54 1
2310 60 1
2310 68 1
2311 60 1
2312 70 1
2313 45 1
2314 58 1
2315 45 1
2316 38 1
2317 65 1
2318 39 1
2318 44 1
2319 20 1
2320 41 1
2320 45 1
2320 70 1
2321 71 1
2322 71 1
2323 18 1
2324 70 1
2325 59 1
2326 61 1
2327 25 1
2327 43 1
2328 38 1
2328 40 1
2329 25 1
2331 51 1
2331 70 1
2332 54 1
2333 48 1
2333 60 1
2334 25 1
2334 62 1
2335 43 1
2337 39 1
2338 70 1
2339 1 1
2340 32 1
2341 47 1
2341 59 1
2342 38 1
2343 4 1
2344 60 1
2345 20 1
2345 70 1
2346 9 1
2346 13 2
2346 18 1
2346 20 1
2346 25 1
2346 26 1
2346 30 1
2346 41 1
2346 45 4
2346 48 1
2346 62 2
2346 70 1
2346 71 1
2348 33 1
2349 62 1
2350 18 1
2351 70 1
2352 62 1
2353 70 1
2354 68 1
2355 51 1
2356 18 1
2356 48 1
2356 70 1
2357 38 1
2358 70 1
2359 52 1
2360 25 1
2360 60 1
2361 60 1
2362 48 1
2363 54 1
2364 70 1
2365 54 1
2366 70 1
2367 6 1
2368 38 1
2368 54 2
2368 68 1
2369 52 1
2370 70 1
2371 52 1
2371 70 1
2372 20 2
2372 41 1
2373 60 1
2374 39 1
2374 59 1
2375 52 1
2375 62 1
2376 20 1
2376 49 1
2377 70 1
2378 50 1
2378 51 1
2379 6 1
2379 70 1
2380 10 1
2381 32 2
2382 68 1
2383 4 1
2384 10 1
2385 9 1
2386 6 1
2387 32 1
2388 41 1
2389 4 1
2390 38 1
2391 6 1
2392 71 1
2393 70 1
2394 61 1
2395 61 1
2396 70 1
2397 62 1
2399 10 1
2400 65 1
2401 20 1
2401 49 1
2401 70 1
2402 54 1
2403 71 1
2404 2 1
2405 58 1
2406 52 1
2407 71 1
2408 52 1
2409 9 1
2410 38 1
2411 30 1
2412 54 1
2413 71 1
2414 54 1
2415 52 1
2416 38 1
2417 60 1
2417 71 1
2418 20 1
2419 43 1
2420 52 1
2421 65 1
2422 70 1
2423 38 1
2424 51 1
2425 2 1
2426 40 1
2427 45 1
2428 45 1
2429 54 1
2430 49 1
2431 39 1
2432 70 1
2433 51 1
2434 38 1
2435 56 1
2436 45 1
2437 70 1
2438 54 1
2439 4 1
2440 70 1
2441 54 1
2442 70 2
2443 52 1
2444 54 1
2445 38 1
2446 70 1
2447 48 1
2447 60 1
2448 41 1
2449 70 2
2450 26 1
2451 62 1
2452 34 1
2453 2 1
2453 4 1
2453 5 1
2453 6 1
2453 7 1
2453 10 1
2453 12 3
2453 13 3
2453 14 2
2453 20 6
2453 24 3
2453 25 1
2453 30 12
2453 31 6
2453 32 9
2453 34 3
2453 39 2
2453 40 10
2453 43 1
2453 45 13
2453 46 1
2453 47 1
2453 49 2
2453 50 1
2453 51 19
2453 54 6
2453 55 1
2453 58 2
2453 62 19
2453 70 2
2453 71 1
2454 51 1
2455 20 1
2456 34 1
2456 62 1
2457 70 1
2458 70 1
2459 54 1
2460 4 1
2461 70 1
2462 25 1
2463 62 1
2464 60 1
2464 70 1
2465 31 1
2466 68 1
2467 20 1
2468 70 1
2469 70 1
2470 71 1
2471 62 1
2472 13 1
2473 30 1
2474 38 1
2475 25 1
2475 55 1
2476 60 1
2477 45 1
2478 13 1
2479 18 1
2479 70 1
2480 25 1
2480 40 1
2481 30 1
2482 24 1
2483 71 1
2484 68 1
2485 62 1
2486 4 1
2487 18 1
2488 54 1
2489 3 1
2490 52 1
2491 38 1
2492 13 1
2493 70 1
2494 5 1
2494 38 1
2495 52 1
2496 70 1
2497 70 1
2499 6 1
2499 52 1
2500 71 1
2501 45 1
2502 45 1
2503 20 1
2503 45 1
2504 34 1
2505 70 1
2506 65 1
2507 70 1
2507 71 1
2508 68 1
2509 71 1
2510 13 1
2510 45 1
2511 45 1
2512 51 1
2512 62 1
2512 68 1
2513 38 1
2514 43 1
2514 70 1
2515 68 1
2516 20 1
2516 70 1
2517 61 1
2518 70 1
2519 70 1
2520 24 1
2521 38 1
2522 61 1
2522 70 1
2522 71 1
2523 4 1
2524 38 2
2524 54 1
2524 62 1
2525 51 1
2526 68 1
2527 32 1
2528 51 1
2529 30 3
2529 40 1
2529 55 1
2529 70 1
2530 5 1
2531 60 1
2532 25 1
2534 13 1
2535 25 1
2536 2 1
2537 6 1
2538 43 1
2539 32 1
2540 68 1
2541 30 1
2541 31 1
2541 71 1
2542 43 1
2542 60 1
2543 54 1
2544 20 1
2544 41 1
2544 49 1
2545 52 1
2546 30 1
2547 33 1
2548 49 1
2548 62 1
2549 30 1
2550 60 1
2551 52 1
2552 60 1
2553 54 1
2554 70 1
2555 70 1
2556 51 1
2557 20 1
2558 23 1
2559 51 1
2560 62 1
2561 38 1
2562 30 1
2563 49 1
2564 24 1
2564 71 1
2565 51 1
2566 55 1
2567 38 1
2568 51 1
2568 52 1
2569 51 1
2570 34 1
2571 45 1
2572 51 1
2573 34 2
2573 70 1
2574 70 1
2575 70 1
2576 54 1
2577 51 1
2578 63 1
2579 38 1
2580 52 1
2580 68 1
2580 71 1
2581 20 1
2582 38 1
2583 25 1
2584 51 1
2585 31 1
2586 38 1
2587 70 1
2588 62 1
2589 52 1
2590 13 1
2591 34 1
2591 41 1
2592 55 1
2593 38 1
2593 60 1
2594 45 1
2595 60 1
2596 58 1
2596 62 1
2597 49 1
2598 62 1
2598 70 1
2599 71 1
2600 52 1
2601 34 1
2602 62 1
2603 54 1
2604 4 1
2605 62 1
2606 60 2
2607 14 1
2608 45 1
2609 48 1
2610 48 1
2611 25 1
2612 68 1
2613 54 1
2614 70 1
2615 58 1
2616 39 1
2617 43 1
2618 54 1
2619 55 1
2620 70 1
2621 54 2
2622 54 1
2623 54 1
2624 38 1
2625 54 1
2626 33 1
2627 58 1
2628 49 1
2628 70 1
2629 70 1
2630 34 1
2630 54 1
2631 20 1
2631 30 2
2631 31 1
2631 32 1
2631 68 1
2632 49 1
2632 51 1
2633 45 1
2634 51 1
2635 38 1
2636 41 1
2637 58 2
2638 18 1
2639 71 1
2640 62 1
2641 13 1
2642 20 1
2642 55 1
2643 33 1
2643 62 1
2643 68 1
2645 38 1
2647 52 1
2648 58 1
2649 48 1
2650 70 1
2651 39 1
2652 62 1
2653 68 1
2655 58 1
2656 70 1
2658 2 1
2658 4 1
2658 5 1
2658 13 1
2658 44 1
2658 45 1
2658 52 1
2658 62 1
2658 68 1
2658 70 1
2659 12 1
2659 60 1
2660 46 1
2661 63 1
2662 68 1
2663 13 1
2664 23 1
2664 49 1
2664 52 1
2664 70 1
2665 32 1
2666 65 1
2667 71 1
2668 62 1
2669 62 1
2670 62 1
2671 12 1
2672 13 1
2673 70 1
2674 61 1
2675 48 1
2676 58 1
2677 30 1
2678 20 1
2679 25 1
2680 30 1
2680 63 1
2682 70 1
2683 45 1
2683 70 1
2684 71 1
2685 70 1
2686 45 1
2686 54 1
2687 33 1
2688 30 1
2689 6 1
2689 12 1
2689 41 1
2689 45 1
2689 55 1
2689 57 1
2690 70 1
2691 45 1
2692 70 1
2693 48 1
2694 45 1
2695 55 1
2696 70 1
2696 71 1
2697 54 1
2698 63 1
2699 31 1
2699 45 1
2700 45 1
2702 51 1
2703 70 1
2704 60 1
2704 70 1
2705 68 1
2706 70 1
2707 30 1
2708 70 1
2708 71 1
2709 52 1
2709 70 1
2710 9 1
2711 71 1
2712 51 1
2712 62 1
2713 70 1
2714 41 1
2715 45 1
2716 52 1
2717 14 1
2717 34 1
2718 70 1
2719 71 1
2720 58 1
2720 70 1
2721 43 1
2722 32 1
2722 54 1
2723 43 1
2724 48 1
2724 71 1
2725 70 1
2726 12 1
2727 12 1
2727 62 1
2728 70 1
2729 70 1
2730 20 1
2731 41 2
2732 70 1
2733 52 1
2734 31 1
2734 45 1
2735 65 1
2736 43 1
2736 54 1
2737 38 1
2737 52 1
2737 54 1
2737 60 1
2738 2 1
2738 65 1
2739 4 1
2740 38 1
2742 5 1
2743 58 1
2744 70 1
2745 34 1
2746 52 1
2747 25 1
2748 45 1
2749 54 1
2750 30 1
2751 18 1
2752 70 1
2753 45 1
2754 52 1
2755 4 1
2756 71 1
2757 62 1
2759 70 1
2760 51 1
2761 52 1
2761 70 1
2762 70 1
2762 71 1
2763 25 1
2763 45 1
2764 62 1
2765 54 1
2766 57 1
2767 9 1
2767 30 2
2767 61 1
2767 62 1
2767 70 7
2768 12 1
2769 62 1
2770 51 1
2771 2 1
2771 54 1
2772 38 1
2773 60 1
2774 4 1
2775 38 1
2775 52 1
2776 38 2
2776 43 1
2777 71 1
2779 43 1
2779 71 1
2780 38 1
2781 71 1
2782 20 1
2782 51 1
2782 62 1
2783 45 1
2784 48 1
2785 5 1
2786 58 1
2787 59 1
2788 61 1
2789 34 1
2790 38 1
2791 43 1
2792 54 1
2793 33 1
2794 54 1
2795 60 1
2796 70 2
2797 41 1
2798 34 1
2799 34 1
2800 9 1
2801 51 1
2802 5 1
2802 61 1
2803 70 1
2804 52 1
2804 71 1
2805 54 1
2806 70 1
2807 70 1
2808 48 1
2808 49 1
2809 52 1
2810 40 1
2811 70 1
2812 25 1
2812 33 1
2813 70 1
2814 32 1
2815 38 2
2815 48 1
2815 70 1
2816 31 1
2817 62 1
2818 70 1
2819 38 1
2819 62 1
2819 68 1
2819 70 2
2820 30 1
2821 17 1
2822 71 1
2823 32 1
2824 4 1
2825 38 1
2826 48 1
2827 38 1
2827 70 1
2828 15 1
2828 20 1
2829 38 1
2829 49 1
2830 6 1
2831 70 1
2832 33 1
2833 52 1
2834 51 1
2835 68 1
2836 70 1
2837 49 1
2837 62 1
2837 68 1
2838 38 1
2839 30 1
2840 43 1
2840 58 1
2841 18 2
2842 69 1
2843 59 1
2844 48 1
2845 62 1
2846 38 1
2847 70 1
2848 71 1
2849 70 1
2850 52 1
2851 5 1
2852 54 1
2853 38 1
2853 45 1
2853 49 1
2853 71 1
2854 43 1
2855 54 1
2856 70 1
2857 48 1
2858 60 1
2859 25 1
2860 71 1
2861 30 1
2861 38 1
2861 61 1
2861 68 1
2862 10 1
2863 51 1
2864 45 1
2865 58 1
2867 52 1
2868 20 1
2869 38 1
2870 13 1
2870 70 1
2871 52 1
2872 18 1
2872 70 1
2873 49 1
2873 61 1
2874 70 2
2875 10 1
2875 71 1
2876 70 1
2877 71 1
2878 55 1
2879 6 1
2879 70 1
2880 54 1
2881 18 1
2881 30 1
2881 61 1
2882 43 1
2882 62 1
2883 34 1
2883 54 1
2884 30 1
2884 32 1
2884 39 1
2884 51 1
2884 58 1
2884 68 1
2884 70 2
2884 71 1
2885 2 1
2886 48 1
2887 71 1
2889 25 1
2889 70 1
2890 20 1
2891 51 1
2892 51 1
2893 23 2
2894 1 1
2895 49 1
2896 34 1
2896 63 1
2897 52 1
2898 45 1
2899 52 1
2900 52 1
2901 60 1
2902 51 1
2903 52 1
2903 59 1
2904 54 1
2905 13 1
2905 70 1
2906 51 1
2906 70 1
2907 38 1
2908 71 1
2909 13 1
2909 24 1
2910 60 1
2911 51 1
2912 70 1
2913 40 1
2913 68 1
2914 43 1
2915 50 1
2916 20 1
2917 48 1
2918 45 1
2919 70 1
2920 20 1
2921 52 1
2922 52 1
2923 58 1
2924 63 1
2924 68 1
2925 70 1
2926 45 1
2927 4 1
2928 38 1
2928 58 1
2929 32 1
2930 71 1
2931 20 1
2931 23 1
2932 23 1
2933 52 1
2933 61 1
2934 54 1
2935 38 1
2936 35 1
2937 13 1
2937 70 2
2938 58 1
2939 70 1
2940 30 1
2940 45 1
2941 6 1
2941 61 1
2941 62 1
2942 30 1
2943 8 1
2943 24 1
2944 32 1
2945 40 1
2946 45 1
2947 52 1
2948 61 1
2949 49 1
2950 20 1
2951 70 1
2952 38 1
2952 68 1
2953 18 1
2954 71 1
2955 70 1
2956 70 1
2957 52 1
2958 60 1
2959 20 1
2960 54 1
2960 60 1
2960 70 1
2960 71 1
2961 45 1
2962 43 1
2963 58 1
2964 20 1
2965 40 1
2966 20 1
2967 52 1
2968 52 1
2969 38 1
2970 54 1
2971 45 1
2971 54 1
2972 68 2
2972 70 1
2973 62 1
2974 24 2
2975 51 1
2976 13 1
2976 38 1
2976 54 1
2976 70 1
2977 24 1
2978 62 1
2979 70 1
2980 52 1
2981 52 1
2982 70 1
2983 51 1
2983 62 1
2984 9 1
2984 51 1
2985 70 1
2986 12 1
2987 62 1
2988 52 1
2989 70 1
2990 54 1
2990 70 1
2991 45 1
2991 62 1
2992 9 1
2992 55 1
2993 44 1
2994 52 1
2995 70 1
2996 13 1
2997 61 1
2998 52 1
2998 62 1
2999 4 1
3000 70 1
3001 24 1
3001 25 1
3001 38 1
3001 52 1
3001 68 1
3002 70 1
3003 38 1
3004 54 2
3005 70 1
3006 45 1
3006 62 1
3006 70 1
3007 4 1
3008 62 1
3009 20 1
3009 70 1
3010 60 1
3011 48 1
3012 55 1
3013 25 1
3014 51 1
3015 5 1
3015 45 1
3015 52 2
3015 70 1
3016 58 1
3017 70 1
3018 45 1
3019 68 1
3020 52 1
3021 34 1
3022 18 1
3023 34 1
3024 14 1
3025 31 1
3025 43 1
3026 38 1
3027 58 1
3028 60 1
3029 20 1
3029 30 1
3030 58 1
3031 70 1
3032 38 1
3033 45 1
3033 51 1
3034 54 1
3035 34 1
3036 13 1
3036 52 1
3036 62 1
3036 63 1
3036 65 1
3037 18 2
3038 9 1
3039 70 1
3040 45 1
3041 7 1
3041 45 1
3042 32 1
3043 20 1
3044 70 1
3045 20 1
3046 70 2
3047 70 1
3048 54 1
3049 4 1
3050 10 1
3051 54 1
3052 70 2
3053 25 1
3055 51 1
3055 70 1
3056 63 1
3057 70 1
3058 18 1
3059 63 1
3060 52 1
3060 63 1
3061 70 1
3062 71 1
3063 52 1
3064 71 1
3065 6 1
3065 48 1
3066 70 2
3067 54 1
3068 24 1
3069 61 1
3070 17 1
3071 58 1
3072 40 1
3073 49 1
3073 70 1
3074 18 1
3075 45 1
3075 59 1
3076 58 1
3077 40 1
3078 45 1
3079 9 1
3080 30 1
3081 70 1
3082 45 1
3083 61 1
3084 65 1
3085 45 1
3085 48 1
3086 31 1
3087 71 1
3088 45 1
3089 59 1
3090 31 1
3091 52 1
3092 62 1
3093 33 1
3094 61 1
3095 41 1
3096 55 1
3097 63 1
3098 70 1
3099 20 1
3100 33 2
3101 2 1
3102 9 1
3102 45 1
3102 70 1
3103 18 1
3103 44 1
3104 20 1
3104 30 2
3105 70 1
3106 25 1
3107 70 1
3108 54 1
3109 70 1
3109 71 1
3110 70 1
3111 38 1
3112 38 2
3113 61 1
3114 4 1
3115 65 1
3116 69 1
3117 70 1
3118 20 1
3119 51 1
3120 18 1
3120 70 1
3121 18 1
3122 71 1
3123 31 1
3124 52 1
3125 51 1
3126 4 1
3126 70 1
3127 62 1
3128 45 1
3129 54 1
3130 38 1
3131 30 1
3132 38 1
3133 38 1
3134 58 1
3135 38 1
3136 32 1
3137 10 1
3137 54 1
3138 6 1
3139 70 1
3140 45 1
3140 54 1
3141 58 1
3142 63 1
3143 71 1
3144 51 1
3145 13 1
3146 9 1
3147 68 1
3148 2 1
3149 55 1
3150 52 1
3151 70 1
3152 21 1
3152 70 1
3153 55 1
3154 70 1
3155 62 1
3156 68 1
3157 71 1
3158 12 1
3159 62 1
3160 45 1
3160 52 1
3161 70 1
3162 13 1
3162 71 1
3163 54 1
3163 71 1
3164 51 1
3165 30 1
3166 38 1
3167 13 1
3168 4 1
3168 54 1
3169 71 1
3170 52 1
3171 20 1
3171 54 1
3172 25 1
3172 45 1
3173 13 1
3173 51 1
3174 46 1
3175 6 1
3176 30 2
3178 45 1
3179 13 1
3180 45 1
3181 31 1
3182 5 1
3183 52 1
3184 70 1
3185 38 1
3186 70 1
3187 70 1
3188 20 1
3189 2 1
3189 33 1
3189 34 1
3189 38 1
3189 41 1
3189 45 1
3189 71 1
3190 6 1
3191 45 1
3191 70 1
3192 52 1
3193 61 1
3194 6 1
3194 38 1
3195 43 1
3196 70 1
3197 54 1
3198 70 1
3199 34 1
3199 70 1
3200 12 1
3200 55 1
3200 62 1
3201 62 1
3202 70 1
3203 62 1
3205 62 1
3206 73 1
3207 70 1
3208 71 1
3209 62 1
3210 26 1
3210 55 1
3211 25 1
3211 70 1
3212 30 1
3213 31 1
3214 6 1
3215 71 2
3216 71 1
3217 70 1
3218 48 1
3218 70 1
3219 71 1
3220 70 1
3221 70 1
3222 52 2
3223 71 1
3224 54 1
3225 61 1
3226 38 1
3227 62 1
3228 38 1
3229 70 2
3230 24 1
3231 54 1
3232 5 1
3234 16 1
3235 30 1
3236 62 1
3237 51 1
3237 70 1
3238 47 1
3239 48 1
3240 54 1
3241 71 1
3242 52 1
3242 71 1
3243 51 1
3244 52 1
3245 12 1
3245 45 1
3245 70 1
3246 38 1
3247 70 1
3248 45 1
3249 54 1
3250 70 1
3251 70 1
3252 38 1
3253 70 1
3254 70 1
3255 40 1
3256 4 1
3256 52 1
3256 70 1
3257 4 1
3258 52 1
3258 60 1
3259 20 1
3260 70 1
3261 62 1
3263 49 1
3264 46 1
3265 49 1
3266 38 1
3267 70 1
3268 41 1
3269 63 1
3270 10 1
3270 13 1
3271 2 1
3272 52 1
3273 51 1
3274 41 1
3275 45 1
3276 20 1
3277 52 1
3278 38 1
3279 62 1
3280 70 1
3281 60 1
3281 68 1
3282 52 1
3282 70 1
3283 70 1
3284 65 1
3285 45 1
3286 71 1
3287 70 1
3288 48 1
3289 71 1
3290 12 4
3290 38 1
3290 45 3
3290 51 1
3290 62 2
3290 68 2
3290 71 1
3291 20 1
3292 43 1
3293 54 1
3294 70 1
3295 24 1
3296 58 1
3297 4 1
3297 9 1
3298 45 1
3299 61 1
3300 38 1
3301 4 1
3302 51 1
3303 51 1
3304 38 1
3306 68 2
3307 52 1
3308 31 1
3308 45 1
3308 65 1
3308 68 1
3309 26 1
3310 70 1
3311 38 1
3311 40 1
3312 48 1
3313 70 1
3314 62 1
3315 71 1
3316 43 1
3317 70 1
3318 38 1
3319 68 1
3320 38 1
3321 51 1
3321 60 1
3322 30 1
3323 9 1
3323 52 1
3324 12 1
3325 45 1
3325 71 1
3326 4 1
3327 48 1
3328 62 1
3329 45 1
3329 54 1
3330 25 1
3330 33 1
3331 34 1
3332 5 1
3333 59 1
3334 48 1
3335 18 1
3335 68 1
3336 40 1
3337 33 1
3338 9 1
3338 70 1
3339 71 1
3340 20 1
3340 38 1
3341 52 1
3342 43 1
3343 71 1
3344 14 1
3345 10 1
3346 71 1
3347 20 1
3347 62 1
3348 70 2
3349 23 1
3349 59 1
3350 38 1
3351 62 1
3352 71 1
3353 70 1
3354 38 1
3355 34 1
3356 32 1
3357 70 1
3358 45 1
3359 70 2
3360 38 1
3361 38 1
3362 55 1
3363 60 1
3364 52 1
3365 49 1
3366 41 1
3367 61 1
3368 70 1
3368 71 1
3369 52 1
3370 20 1
3371 71 1
3372 5 1
3373 13 1
3373 70 1
3374 45 1
3374 52 1
3375 48 1
3376 62 1
3377 68 1
3378 43 1
3379 54 1
3380 45 1
3381 13 1
3381 26 1
3382 71 1
3383 52 1
3383 62 1
3384 2 1
3384 70 1
3385 38 1
3385 52 1
3386 49 1
3387 33 1
3388 24 1
3389 40 1
3390 34 1
3391 2 1
3392 48 1
3392 51 1
3392 70 2
3393 34 1
3394 49 2
3395 38 1
3396 6 1
3396 48 1
3397 52 1
3398 52 1
3399 38 1
3400 43 1
3401 25 1
3402 38 1
3402 51 1
3402 54 1
3403 70 1
3403 71 1
3404 4 1
3405 70 1
3406 70 1
3407 70 1
3408 38 1
3409 52 1
3410 62 1
3410 71 1
3411 4 1
3411 70 1
3412 27 1
3412 62 1
3413 70 1
3414 34 1
3414 48 1
3415 70 1
3416 20 1
3417 1 1
3418 70 1
3419 54 1
3419 70 1
3420 70 1
3421 25 1
3421 68 1
3422 70 1
3423 71 1
3424 30 1
3425 32 1
3426 40 1
3427 65 1
3427 70 1
3428 45 1
3429 70 1
3430 70 1
3431 62 2
3432 52 1
3433 58 1
3434 24 1
3435 60 1
3436 30 1
3437 38 1
3437 46 1
3437 68 1
3438 60 1
3439 54 1
3440 49 1
3441 20 1
3441 31 1
3442 51 1
3443 63 1
3444 38 1
3444 62 1
3445 41 1
3445 70 1
3446 40 1
3447 70 1
3448 20 1
3449 52 1
3450 48 1
3450 52 1
3451 38 1
3451 54 1
3452 32 1
3453 7 1
3453 32 2
3454 34 1
3455 38 1
3456 30 1
3457 5 1
3458 54 1
3459 54 1
3460 52 1
3461 43 1
3462 7 1
3463 4 1
3465 38 1
3466 60 1
3467 44 1
3468 45 1
3469 70 1
3470 6 1
3471 51 1
3472 13 1
3472 55 1
3473 54 1
3474 30 1
3474 51 1
3474 54 1
3475 18 1
3475 45 1
3475 52 1
3475 55 1
3476 71 1
3477 20 1
3478 54 1
3479 63 1
3480 31 1
3480 52 1
3481 70 1
3482 55 1
3483 70 1
3484 69 1
3485 70 1
3486 62 1
3487 45 1
3488 54 1
3489 48 1
3490 39 1
3490 51 1
3491 71 2
3493 12 1
3493 70 1
3494 70 1
3495 52 1
3496 4 1
3497 62 1
3498 70 1
3499 71 1
3500 54 1
3500 61 1
3501 30 1
3502 6 2
3503 52 1
3504 25 1
3505 30 1
3506 48 1
3507 52 1
3508 60 1
3509 25 1
3510 38 1
3511 61 1
3512 38 1
3513 70 1
3514 20 1
3515 45 1
3516 10 1
3516 24 1
3516 25 1
3516 33 1
3516 52 1
3517 23 1
3518 58 1
3519 70 1
3520 70 1
3521 25 1
3522 61 1
3523 71 1
3524 38 1
3524 71 1
3525 24 1
3525 41 1
3526 38 1
3527 5 2
3528 62 1
3529 48 1
3530 45 1
3531 38 1
3532 68 1
3533 38 2
3533 70 1
3534 52 1
3535 52 1
3536 70 1
3537 70 1
3538 70 1
3539 54 1
3540 52 1
3541 70 1
3542 55 1
3543 4 1
3544 38 1
3545 48 1
3546 52 1
3547 70 1
3548 38 1
3549 54 1
3550 71 1
3551 70 1
3552 71 1
3553 46 1
3554 65 1
3555 38 1
3556 8 1
3557 62 1
3558 51 1
3558 70 1
3559 68 1
3560 30 1
3561 24 1
3562 68 1
3563 70 1
3565 63 1
3566 48 1
3567 51 1
3568 40 1
3569 23 1
3570 18 1
3571 4 1
3572 16 1
3572 52 1
3573 4 1
3574 62 1
3575 70 1
3576 70 1
3577 2 1
3577 6 1
3577 45 1
3578 51 1
3578 71 1
3579 4 1
3580 54 1
3581 54 1
3582 38 1
3583 63 1
3584 45 1
3585 48 1
3586 25 1
3587 20 2
3587 32 1
3588 10 1
3589 71 1
3590 70 1
3590 71 1
3591 70 1
3592 51 1
3592 62 1
3593 33 1
3593 70 1
3594 58 1
3595 23 1
3596 49 1
3597 62 1
3598 4 1
3599 54 1
3600 62 1
3601 62 1
3602 51 1
3603 10 1
3603 24 1
3603 30 2
3603 31 1
3603 32 1
3603 46 1
3603 52 1
3603 54 3
3603 58 1
3603 61 3
3603 62 1
3604 51 1
3605 70 1
3606 44 1
3607 52 1
3608 30 1
3609 62 1
3611 60 1
3612 7 1
3612 32 1
3612 42 1
3612 45 3
3612 52 1
3612 54 1
3612 58 2
3612 61 1
3612 62 1
3612 70 1
3613 70 1
3614 25 1
3614 71 1
3615 62 2
3616 63 1
3617 70 1
3618 51 1
3618 54 1
3619 13 1
3619 55 1
3620 20 1
3620 61 1
3621 2 1
3622 6 1
3623 62 1
3624 60 1
3625 4 1
3626 52 1
3627 45 1
3627 52 1
3628 48 1
3629 38 1
3630 9 1
3630 62 1
3631 62 1
3632 18 1
3633 20 1
3634 52 1
3635 51 1
3636 70 1
3637 2 1
3637 43 1
3638 25 1
3639 20 1
3640 70 1
3641 70 1
3642 52 1
3642 54 1
3643 30 1
3644 20 1
3645 52 1
3645 58 1
3646 38 1
3647 54 1
3648 30 1
3648 31 1
3648 40 1
3648 54 1
3648 58 2
3648 65 1
3648 68 1
3648 70 1
3649 62 1
3649 70 1
3650 30 1
3651 70 1
3651 71 1
3652 38 1
3653 55 1
3654 12 1
3654 34 1
3655 9 1
3656 43 1
3657 6 1
3657 65 1
3658 13 1
3659 32 1
3660 25 1
3661 45 1
3661 70 1
3662 54 1
3663 70 1
3664 62 1
3666 70 1
3667 52 1
3668 30 1
3669 5 1
3670 5 1
3670 52 2
3671 9 1
3672 51 1
3673 71 2
3674 46 1
3675 51 1
3676 54 1
3677 51 1
3678 65 1
3678 71 1
3679 70 1
3680 54 1
3681 58 1
3682 52 1
3683 18 1
3684 31 1
3685 71 1
3686 13 1
3686 32 1
3687 62 1
3688 24 1
3689 38 1
3690 48 1
3691 45 1
3692 25 1
3693 54 1
3695 70 1
3696 5 1
3696 39 1
3696 52 1
3697 62 1
3698 38 1
3699 61 1
3700 34 1
3701 2 1
3702 24 1
3702 30 2
3702 51 1
3702 61 1
3703 52 1
3704 55 2
3705 2 1
3706 70 2
3707 62 1
3708 45 1
3708 65 1
3709 52 1
3710 70 1
3711 9 1
3712 6 1
3713 45 1
3713 68 1
3714 51 2
3715 54 1
3716 45 1
3717 32 1
3718 58 1
3718 62 1
3719 45 1
3719 54 1
3719 70 1
3719 71 1
3720 4 1
3721 48 1
3722 2 1
3722 49 1
3723 25 1
3724 5 1
3725 13 1
3726 63 1
3727 54 1
3728 52 1
3729 71 1
3730 70 1
3731 5 1
3731 20 1
3732 71 1
3733 51 1
3734 49 1
3735 38 1
3736 45 1
3737 68 1
3738 25 1
3739 52 1
3740 34 1
3740 54 1
3741 4 1
3742 70 1
3743 70 1
3744 25 1
3745 21 1
3745 58 1
3745 70 1
3746 20 1
3746 24 1
3747 45 1
3748 30 1
3749 12 1
3750 18 1
3751 54 1
3751 62 1
3752 68 1
3753 62 1
3754 38 1
3755 18 1
3755 54 1
3755 58 1
3756 54 1
3757 70 1
3758 70 1
3759 70 1
3760 3 1
3761 38 1
3762 31 1
3763 62 1
3764 70 1
3765 58 1
3765 62 1
3766 18 1
3767 70 1
3769 70 1
3770 70 1
3771 38 1
3772 38 1
3773 30 1
3774 70 1
3775 20 1
3776 70 1
3777 34 1
3777 70 1
3778 68 1
3779 30 1
3780 51 1
3781 55 1
3781 65 1
3782 13 1
3783 70 1
3784 58 1
3785 51 1
3786 71 1
3787 70 1
3788 54 1
3789 70 1
3790 62 1
3791 71 1
3792 2 1
3792 6 1
3792 7 1
3792 25 1
3792 26 1
3792 30 1
3792 31 1
3792 32 1
3792 37 2
3792 44 1
3792 45 1
3792 48 1
3792 49 2
3792 51 2
3792 52 1
3792 54 1
3792 55 2
3792 56 1
3792 62 4
3792 63 1
3792 70 3
3792 71 4
3793 62 1
3794 16 1
3795 62 2
3796 52 1
3797 4 1
3798 62 1
3799 2 1
3799 58 1
3800 71 1
3801 12 1
3802 62 1
3803 65 1
3804 54 1
3805 54 1
3805 70 1
3806 70 1
3807 70 1
3808 70 1
3809 51 1
3810 9 1
3810 62 1
3811 52 1
3812 62 1
3813 54 1
3814 54 1
3815 20 1
3816 33 1
3816 52 1
3817 52 1
3818 25 1
3819 71 1
3820 70 1
3821 70 1
3822 48 1
3823 61 1
3824 38 1
3825 44 1
3826 71 1
3827 63 1
3828 48 1
3829 30 1
3829 62 1
3829 70 1
3830 9 1
3831 54 1
3832 62 1
3833 51 1
3834 70 1
3835 51 1
3836 10 1
3836 24 1
3837 54 1
3838 62 2
3838 70 1
3839 52 1
3840 45 1
3841 44 1
3842 49 1
3843 51 1
3843 70 2
3844 43 1
3845 9 1
3846 46 1
3847 51 1
3848 43 1
3849 38 1
3850 70 1
3851 43 1
3852 25 1
3852 71 1
3853 62 1
3854 20 1
3854 52 2
3854 70 1
3855 52 1
3856 43 1
3856 52 1
3856 68 1
3857 40 1
3858 70 1
3859 32 1
3860 52 1
3861 60 1
3862 45 1
3862 70 1
3863 6 1
3864 70 1
3865 26 1
3866 43 1
3867 25 1
3867 54 1
3868 70 1
3869 43 1
3870 38 1
3870 52 1
3870 55 1
3870 70 2
3871 45 1
3872 48 1
3872 59 1
3872 70 1
3873 25 1
3874 20 1
3875 62 1
3876 52 1
3876 71 1
3877 10 1
3878 33 1
3878 62 1
3879 6 1
3880 44 1
3881 62 1
3882 4 1
3883 30 2
3884 70 1
3885 65 1
3886 12 1
3887 52 1
3888 51 1
3889 25 1
3890 70 1
3891 45 1
3892 48 1
3893 67 1
3894 70 1
3895 6 1
3897 54 1
3897 70 1
3898 70 2
3899 70 1
3900 62 1
3901 34 1
3902 20 1
3902 54 1
3903 25 1
3904 5 1
3905 34 1
3906 38 1
3907 52 2
3907 71 1
3908 30 1
3909 70 2
3910 62 1
3911 70 1
3912 70 1
3913 38 1
3914 70 1
3915 43 1
3916 60 1
3917 21 1
3917 70 1
3918 69 1
3919 58 1
3920 9 1
3920 62 1
3920 70 1
3921 70 1
3922 32 1
3923 71 1
3924 52 1
3925 68 1
3926 40 1
3927 52 1
3928 52 1
3929 54 1
3930 70 1
3931 48 1
3932 51 1
3933 45 1
3934 38 1
3934 70 1
3935 51 1
3935 70 1
3936 4 1
3937 18 1
3939 62 1
3940 70 1
3941 60 1
3942 52 1
3943 70 1
3943 71 1
3944 24 1
3946 51 1
3946 52 1
3947 52 1
3947 54 1
3948 6 1
3949 34 1
3950 30 1
3951 9 1
3952 45 1
3953 70 1
3955 48 1
3956 60 1
3957 54 1
3958 31 1
3959 45 1
3960 52 1
3960 54 1
3961 60 1
3962 54 1
3963 70 1
3964 58 1
3965 25 1
3966 48 1
3967 13 1
3967 45 1
3967 49 1
3968 70 1
3969 52 1
3970 71 1
3971 70 1
3972 70 1
3973 46 1
3974 70 1
3975 70 1
3976 51 1
3976 70 1
3977 4 1
3978 12 1
3979 51 1
3980 70 1
3981 63 1
3982 43 1
3983 45 1
3984 52 1
3984 55 1
3984 71 1
3985 51 1
3986 4 1
3987 70 1
3988 13 1
3988 70 1
3989 9 1
3989 46 1
3990 55 1
3991 70 1
3992 70 1
3993 60 1
3994 43 1
3995 31 1
3996 2 1
3996 54 1
3997 33 1
3998 68 1
3999 24 1
4000 4 1
4001 60 1
4002 70 1
4003 10 1
4004 54 2
4005 51 1
4006 60 1
4007 20 1
4008 47 1
4008 70 1
4009 60 1
4010 45 1
4011 13 1
4012 54 1
4013 70 1
4014 62 1
4015 45 1
4016 30 1
4016 70 1
4017 52 1
4018 52 1
4019 5 1
4020 68 1
4021 48 1
4022 61 1
4023 25 1
4024 70 1
4025 45 1
4025 70 1
4026 71 1
4027 54 1
4027 63 1
4028 12 1
4029 70 1
4030 10 1
4030 70 1
4031 48 1
4032 70 1
4033 70 1
4034 54 1
4035 2 2
4036 59 1
4037 71 1
4038 48 1
4039 41 1
4040 25 1
4041 38 1
4042 70 1
4043 70 2
4044 70 1
4045 38 1
4045 70 1
4046 32 1
4047 9 1
4048 55 1
4049 62 2
4050 6 1
4052 70 1
4053 71 1
4054 70 1
4055 20 1
4056 18 1
4057 6 1
4058 70 1
4059 62 1
4060 71 1
4061 70 2
4062 45 1
4063 38 1
4064 61 1
4065 40 1
4066 62 1
4066 70 1
4067 46 1
4068 9 1
4069 70 1
4070 25 1
4071 31 1
4072 70 1
4073 71 1
4074 52 1
4075 65 1
4076 4 1
4076 70 1
4077 12 1
4077 57 1
4077 70 1
4078 13 1
4079 51 1
4080 70 1
4081 38 1
4082 40 1
4082 45 1
4083 71 1
4084 71 1
4085 6 1
4087 70 1
4088 20 1
4089 24 1
4090 62 1
4091 63 1
4092 32 1
4093 58 1
4094 70 1
4095 71 1
4096 62 1
4097 68 1
4098 70 1
4099 52 2
4100 65 1
4100 70 1
4101 4 1
4101 70 1
4102 52 1
4103 54 1
4104 43 1
4105 25 1
4106 24 1
4106 49 1
4106 70 1
4107 20 1
4108 20 1
4109 72 1
4110 41 1
4111 4 1
4112 62 1
4113 4 1
4114 62 1
4115 70 1
4116 45 1
4117 62 1
4118 38 1
4119 48 1
4120 58 1
4121 70 1
4122 52 1
4123 38 1
4124 45 1
4125 70 1
4126 70 1
4127 46 1
4128 70 1
4129 34 1
4130 2 1
4131 54 1
4132 45 1
4133 4 1
4133 13 1
4134 45 1
4135 52 1
4136 70 1
4137 38 1
4138 61 1
4139 34 1
4139 45 1
4140 25 1
4141 43 1
4142 62 1
4143 60 1
4143 71 1
4144 20 1
4145 20 1
4146 43 1
4146 70 1
4147 71 1
4148 58 1
4149 60 1
4150 30 1
4151 4 1
4152 7 1
4152 13 1
4152 45 1
4152 58 1
4152 70 1
4153 39 1
4154 52 1
4155 51 1
4156 12 1
4157 71 1
4158 70 1
4159 13 1
4159 70 1
4160 65 1
4161 52 1
4162 44 1
4163 4 1
4163 45 1
4164 58 1
4165 25 1
4166 58 1
4166 62 1
4167 70 1
4168 9 1
4169 38 1
4170 61 1
4171 9 1
4172 62 1
4173 43 1
4174 25 1
4174 44 1
4174 51 1
4174 62 1
4175 70 2
4176 68 1
4177 34 1
4178 12 1
4179 70 3
4180 54 1
4181 62 1
4182 54 1
4183 48 1
4184 5 1
4185 65 1
4186 12 1
4186 62 1
4187 33 1
4188 57 1
4189 68 1
4190 55 1
4191 70 1
4192 54 1
4192 63 1
4193 69 1
4194 52 1
4195 70 1
4196 54 1
4197 49 1
4198 54 1
4199 31 1
4200 38 1
4201 69 1
4202 59 1
4203 58 1
4204 71 1
4205 62 1
4206 68 1
4207 18 1
4208 39 1
4209 68 1
4210 38 1
4211 55 1
4212 52 1
4213 30 1
4214 12 1
4215 39 1
4215 70 1
4216 12 1
4217 20 1
4217 62 1
4218 5 1
4219 38 1
4219 70 1
4219 71 1
4220 6 1
4220 38 1
4220 52 1
4220 70 1
4221 60 1
4222 51 1
4223 44 1
4224 48 1
4225 68 1
4226 70 1
4227 2 1
4227 70 1
4227 71 1
4228 71 1
4229 70 1
4230 55 1
4231 45 1
4232 30 1
4233 4 1
4235 70 1
4236 62 1
4237 54 1
4238 2 1
4238 52 1
4238 60 1
4238 62 1
4238 71 1
4239 6 1
4239 60 1
4239 62 1
4240 70 1
4241 52 1
4242 70 1
4243 31 1
4244 43 1
4245 46 1
4246 12 1
4247 61 1
4249 13 1
4250 25 1
4251 38 1
4252 70 1
4253 32 1
4254 43 1
4255 70 1
4256 18 1
4257 70 1
4258 38 1
4259 38 1
4260 70 1
4261 38 1
4262 38 1
4263 62 1
4264 70 1
4265 54 1
4266 54 1
4266 70 1
4267 38 1
4268 71 1
4269 70 2
4270 70 1
4271 13 1
4272 62 1
4273 38 1
4273 54 1
4274 70 1
4275 48 1
4276 70 1
4277 70 1
4278 4 1
4279 4 1
4279 71 1
4280 46 1
4281 25 1
4281 30 1
4281 38 1
4281 52 2
4281 54 1
4281 65 1
4281 70 1
4282 71 2
4283 52 1
4284 43 1
4285 70 1
4286 60 1
4287 54 1
4288 59 1
4288 62 1
4288 70 1
4289 70 1
4290 38 1
4291 61 1
4292 54 1
4293 62 1
4293 70 1
4294 54 1
4296 70 1
4297 48 1
4298 62 1
4299 51 1
4299 70 1
4300 70 1
4301 2 1
4302 4 1
4303 61 1
4304 51 1
4305 71 1
4306 38 2
4307 58 1
4308 4 1
4308 55 1
4309 59 1
4309 70 1
4310 9 1
4311 32 1
4311 62 1
4311 70 1
4312 65 1
4313 60 1
4314 52 1
4315 20 1
4316 54 1
4317 38 1
4317 54 1
4317 62 1
4318 70 1
4319 52 1
4320 52 1
4321 30 1
4322 30 2
4322 62 1
4323 62 1
4324 54 1
4325 68 1
4326 30 1
4326 42 1
4326 62 1
4326 70 1
4327 8 1
4327 71 1
4328 63 1
4329 52 1
4330 4 1
4330 30 1
4330 34 1
4331 51 1
4333 23 1
4334 43 1
4334 45 1
4334 70 1
4335 18 1
4336 62 1
4337 2 1
4338 18 1
4339 70 1
4340 71 1
4341 55 1
4342 70 2
4343 60 1
4343 65 1
4344 73 1
4345 45 1
4346 59 1
4347 20 1
4347 32 1
4347 52 2
4349 70 1
4350 25 1
4351 52 1
4351 54 1
4351 61 1
4352 70 1
4353 38 1
4354 43 1
4354 61 1
4354 62 1
4355 70 2
4356 48 1
4356 54 1
4357 38 1
4358 51 1
4359 70 1
4360 51 1
4360 70 1
4361 58 1
4362 45 1
4363 71 1
4364 70 1
4365 12 1
4366 10 1
4366 41 1
4367 30 1
4367 51 1
4368 59 1
4369 52 1
4370 38 1
4371 43 1
4372 54 1
4373 70 1
4374 20 1
4375 48 2
4375 51 1
4376 21 1
4377 2 1
4378 65 1
4379 70 1
4380 70 2
4381 9 1
4382 25 1
4383 52 1
4384 31 1
4385 51 1
4386 54 1
4386 70 1
4389 10 1
4389 52 1
4389 70 1
4390 13 1
4390 49 1
4390 62 2
4390 68 1
4391 51 1
4392 4 1
4393 9 1
4394 30 1
4395 25 1
4395 45 1
4396 45 1
4397 54 1
4398 12 1
4398 48 1
4399 52 1
4399 62 1
4400 38 2
4400 60 1
4400 62 2
4400 71 1
4401 52 1
4402 51 1
4403 71 1
4404 52 1
4404 70 2
4405 5 1
4406 54 1
4406 61 1
4408 52 1
4408 70 1
4409 38 1
4409 40 1
4409 45 3
4409 54 1
4409 58 1
4410 52 1
4411 41 1
4411 45 2
4412 40 1
4413 54 1
4414 51 1
4415 20 1
4416 30 1
4417 62 1
4418 38 1
4419 71 1
4420 45 1
4420 48 1
4421 20 1
4422 65 1
4423 54 1
4424 70 1
4425 49 1
4426 61 1
4427 43 1
4428 20 1
4429 70 1
4431 38 1
4432 70 1
4433 25 1
4433 71 1
4434 45 1
4435 38 1
4436 52 1
4437 30 1
4438 5 1
4439 62 1
4440 62 1
4441 45 2
4442 61 1
4443 62 1
4443 70 1
4444 45 1
4444 49 1
4444 70 1
4445 10 1
4445 45 1
4445 51 1
4445 58 1
4445 62 2
4445 71 1
4446 51 1
4447 54 1
4448 68 1
4449 25 1
4450 65 1
4451 65 1
4452 70 1
4453 18 1
4454 6 1
4455 8 1
4457 12 1
4458 4 1
4459 54 1
4460 70 1
4461 30 1
4462 70 1
4463 71 1
4464 2 1
4465 10 1
4466 52 1
4467 52 1
4467 54 1
4468 62 1
4469 9 1
4470 54 1
4470 70 1
4471 62 1
4472 62 1
4473 52 1
4474 71 1
4475 52 1
4476 70 1
4477 9 1
4478 46 1
4479 52 1
4480 39 1
4481 65 1
4483 13 1
4484 70 1
4485 34 1
4486 2 1
4487 51 1
4487 63 1
4487 70 1
4488 4 1
4489 34 1
4490 60 1
4491 68 1
4492 70 1
4493 20 1
4494 38 2
4495 62 1
4496 38 1
4497 62 1
4498 52 1
4499 70 1
4500 4 2
4500 70 1
4501 52 1
4502 38 1
4502 59 1
4502 62 1
4503 4 1
4503 38 1
4504 58 1
4505 4 1
4506 4 1
4507 10 1
4508 25 1
4509 4 1
4510 70 1
4511 4 1
4512 51 1
4512 70 1
4513 34 1
4514 26 1
4515 70 2
4516 38 1
4517 9 1
4518 25 1
4519 70 1
4520 45 1
4521 43 1
4522 44 1
4522 61 1
4523 30 1
4524 61 1
4525 25 1
4525 45 1
4526 38 1
4527 70 1
4528 49 1
4529 62 1
4529 68 1
4530 28 1
4531 32 1
4532 70 1
4533 25 1
4533 55 1
4534 20 1
4535 62 1
4536 60 1
4537 52 1
4538 32 1
4539 54 1
4540 4 1
4540 62 1
4541 40 1
4542 43 1
4544 60 1
4545 58 1
4546 68 1
4548 38 2
4548 54 1
4549 13 1
4550 61 1
4551 62 1
4552 38 1
4553 52 1
4554 45 1
4555 70 1
4556 51 1
4557 52 1
4558 70 1
4559 45 1
4560 70 1
4561 70 1
4562 38 1
4562 60 1
4563 38 1
4563 54 1
4564 49 1
4565 38 1
4566 52 1
4567 20 1
4567 65 1
4568 25 1
4569 52 1
4570 70 1
4571 70 1
4572 25 1
4573 45 1
4574 70 1
4575 52 1
4576 13 1
4576 38 1
4576 48 1
4577 33 1
4577 38 1
4577 70 1
4577 71 1
4578 45 1
4579 38 1
4579 51 1
4579 71 1
4580 45 1
4581 70 1
4582 52 1
4583 39 1
4584 38 1
4584 62 1
4584 70 1
4585 62 1
4586 38 1
4587 54 1
4588 30 1
4589 48 1
4590 70 1
4591 70 1
4592 65 1
4593 25 1
4594 70 1
4595 52 1
4596 20 1
4597 38 1
4598 13 1
4599 65 1
4600 62 1
4601 52 1
4602 54 1
4603 60 1
4604 45 1
4604 52 1
4605 65 1
4606 71 1
4607 54 1
4608 32 1
4608 68 1
4609 70 2
4610 62 1
4611 51 1
4612 2 1
4613 32 1
4614 54 1
4615 9 1
4616 70 1
4617 61 1
4617 70 1
4619 59 1
4619 70 1
4620 71 1
4621 62 1
4621 63 1
4622 46 1
4623 51 1
4623 70 1
4624 25 1
4625 13 1
4625 14 1
4625 45 1
4626 6 1
4626 21 1
4626 58 1
4627 60 1
4627 71 1
4628 62 1
4629 54 1
4630 70 1
4631 54 1
4632 70 1
4633 62 1
4634 68 1
4636 2 1
4637 70 1
4638 6 1
4638 45 1
4638 60 1
4639 18 1
4640 41 1
4640 62 1
4641 49 1
4642 45 1
4643 52 1
4644 25 1
4645 32 1
4645 38 1
4645 55 1
4645 70 1
4646 54 1
4647 31 1
4648 52 1
4649 70 1
4650 61 1
4651 52 1
4651 71 1
4652 70 1
4653 45 1
4654 70 1
4655 62 1
4656 4 1
4656 9 1
4656 34 1
4657 34 1
4657 48 1
4658 48 1
4659 71 1
4660 48 1
4661 49 1
4662 49 1
4663 48 1
4664 4 1
4664 49 1
4665 61 1
4666 60 1
4667 51 1
4668 60 1
4669 30 1
4670 70 1
4671 70 1
4672 5 1
4673 30 1
4673 51 1
4674 38 1
4675 43 1
4676 54 1
4677 8 1
4677 51 1
4678 13 1
4679 55 1
4680 70 1
4681 37 1
4682 70 1
4683 4 1
4684 54 1
4685 45 1
4686 62 1
4687 52 1
4688 45 1
4689 62 1
4690 34 1
4690 49 1
4691 25 1
4691 58 1
4692 45 1
4693 14 1
4693 30 1
4694 71 1
4695 48 1
4696 71 1
4697 39 1
4698 23 1
4699 59 1
4699 65 1
4700 70 2
4701 2 1
4702 71 1
4703 38 1
4704 48 1
4705 54 1
4706 58 1
4707 70 1
4708 54 1
4709 13 2
4709 45 1
4710 9 1
4710 48 1
4711 5 1
4712 31 1
4713 70 1
4714 18 1
4715 70 1
4716 45 1
4716 70 1
4718 30 1
4719 52 1
4720 71 1
4721 38 2
4722 60 1
4723 32 1
4723 65 1
4724 33 1
4725 13 1
4725 30 1
4726 12 1
4727 54 1
4728 18 1
4729 70 1
4730 70 1
4731 45 1
4732 17 1
4733 70 1
4734 52 1
4735 51 1
4736 51 1
4737 51 1
4738 71 1
4739 54 1
4740 52 2
4741 34 1
4742 40 1
4743 45 1
4743 70 1
4744 60 1
4745 61 1
4746 25 1
4746 70 1
4747 70 1
4748 70 1
4749 45 1
4750 6 1
4751 5 1
4751 70 1
4752 70 1
4753 38 1
4754 60 1
4755 20 1
4756 70 1
4757 68 1
4758 70 1
4759 70 2
4760 70 1
4761 38 1
4761 65 1
4761 68 1
4761 70 1
4762 38 1
4763 70 1
4764 68 1
4765 13 1
4766 14 1
4766 57 1
4767 4 1
4767 49 1
4768 62 1
4769 38 1
4770 70 1
4771 40 1
4772 72 1
4773 38 1
4774 51 1
4775 52 1
4776 14 1
4776 52 1
4777 18 1
4777 34 1
4778 70 1
4779 10 1
4779 13 1
4780 31 1
4780 68 1
4781 70 1
4782 71 1
4783 41 1
4784 48 1
4785 54 1
4786 48 1
4787 70 1
4788 71 1
4789 2 1
4790 54 1
4791 45 1
4791 49 1
4792 51 1
4793 70 1
4794 71 1
4795 4 1
4795 38 1
4796 52 1
4797 70 2
4798 70 1
4799 42 1
4800 62 1
4801 54 1
4802 68 1
4803 30 1
4804 34 1
4805 24 1
4807 38 1
4808 60 1
4809 54 1
4810 68 1
4811 4 1
4812 65 1
4813 62 1
4814 62 1
4815 71 1
4816 25 1
4817 20 1
4818 52 1
4818 70 1
4818 71 1
4819 59 1
4820 62 1
4821 52 1
4821 70 1
4822 60 1
4823 60 2
4824 13 1
4824 54 1
4825 31 1
4826 70 1
4827 52 1
4827 71 1
4828 25 1
4829 70 1
4830 20 1
4831 54 1
4832 38 1
4832 51 2
4833 31 1
4834 34 1
4835 13 1
4837 38 1
4837 62 1
4837 70 1
4837 71 1
4838 44 1
4839 70 1
4840 20 1
4840 52 1
4841 52 1
4841 70 2
4842 70 1
4843 4 1
4844 62 1
4844 70 1
4845 9 1
4845 70 1
4846 6 1
4846 62 1
4846 70 1
4847 18 1
4848 60 1
4849 68 1
4850 70 1
4851 9 1
4852 5 1
4853 72 1
4854 62 1
4855 38 1
4856 52 1
4857 70 1
4858 54 1
4859 4 1
4859 70 1
4859 71 1
4860 54 1
4860 71 1
4861 61 1
4862 70 1
4863 70 1
4864 70 1
4865 70 1
4866 39 1
4867 38 1
4867 61 1
4868 70 1
4869 70 1
4870 54 1
4871 54 1
4872 49 1
4873 9 1
4873 13 1
4873 49 1
4874 72 1
4875 54 1
4876 70 1
4877 70 1
4878 25 1
4879 9 1
4879 70 1
4880 70 1
4881 51 1
4882 25 1
4883 58 1
4884 34 1
4885 4 1
4885 9 1
4886 41 1
4886 70 2
4887 38 1
4888 70 1
4889 31 1
4890 25 1
4891 51 1
4892 24 1
4893 49 1
4894 70 1
4895 49 1
4896 71 1
4897 54 1
4898 54 1
4898 70 1
4899 70 1
4900 71 1
4902 62 1
4903 62 1
4904 70 1
4905 70 1
4906 70 1
4907 70 2
4908 54 1
4909 20 1
4910 4 1
4911 34 1
4912 38 1
4913 13 1
4914 71 1
4915 41 1
4916 61 1
4917 54 1
4918 24 1
4918 51 1
4919 70 1
4920 34 2
4921 60 1
4922 51 1
4923 38 1
4924 48 1
4925 35 1
4925 49 1
4926 70 1
4927 41 1
4928 52 1
4928 71 1
4929 62 1
4930 51 1
4931 43 1
4931 52 1
4931 62 1
4932 62 1
4933 18 1
4934 62 1
4935 22 1
4935 45 1
4936 58 1
4937 24 1
4938 68 3
4939 13 1
4939 68 1
4941 45 1
4942 70 1
4943 70 1
4944 55 1
4945 61 1
4945 70 1
4946 70 1
4947 70 1
4948 20 2
4948 26 1
4948 33 1
4948 51 2
4948 52 1
4949 54 1
4949 70 1
4950 14 1
4951 18 1
4952 52 1
4953 34 1
4954 6 1
4955 52 1
4956 61 1
4957 49 1
4958 46 1
4959 38 1
4960 62 1
4961 20 1
4962 71 1
4963 70 1
4964 14 1
4965 71 1
4966 54 1
4967 32 1
4968 70 1
4969 6 1
4970 45 1
4971 71 1
4972 34 1
4972 59 1
4973 54 1
4973 71 1
4974 6 1
4974 45 1
4975 45 1
4976 54 1
4977 65 1
4978 70 1
4979 71 1
4980 23 1
4981 24 1
4982 54 1
4983 25 1
4984 65 1
4985 65 1
4986 2 1
4987 70 1
4988 2 1
4988 34 1
4989 25 1
4989 62 1
4990 68 1
4991 70 1
4992 70 1
4993 55 1
4994 45 1
4995 71 1
4996 71 1
4997 54 1
4998 62 1
4999 24 1
5000 45 1
5000 52 1
5001 70 1
5002 54 1
5003 45 2
5004 61 1
5005 70 1
5006 30 1
5007 54 1
5008 70 1
5009 24 1
5009 49 1
5010 43 1
5011 52 1
5012 45 1
5013 9 1
5013 68 1
5013 71 1
5014 45 1
5015 52 1
5016 54 1
5017 20 1
5018 13 1
5018 45 1
5019 13 1
5020 45 1
5020 62 1
5020 70 1
5021 30 1
5022 70 1
5023 70 1
5024 55 1
5025 70 1
5026 25 1
5027 40 1
5028 9 1
5029 62 1
5030 70 1
5031 13 1
5031 52 1
5032 58 1
5033 4 1
5033 62 1
5033 71 1
5034 32 1
5035 38 1
5036 70 1
5037 71 1
5038 4 1
5038 10 1
5040 54 1
5040 70 1
5041 14 1
5042 5 1
5042 52 1
5043 2 1
5044 62 1
5045 22 1
5045 23 1
5046 61 1
5047 15 1
5048 4 1
5048 40 1
5049 30 1
5050 54 1
5051 70 1
5052 70 1
5053 45 1
5054 70 1
5055 52 1
5056 70 1
5057 70 1
5058 52 1
5059 20 1
5059 70 1
5060 39 1
5061 4 1
5062 62 1
5063 52 1
5064 70 1
5065 49 1
5066 71 1
5067 33 1
5068 20 1
5069 62 1
5070 70 1
5071 71 1
5072 51 1
5073 38 1
5074 30 1
5074 51 1
5075 70 1
5076 30 1
5076 62 1
5077 39 1
5077 71 1
5078 43 1
5079 4 1
5080 38 1
5081 58 1
5082 62 1
5083 25 1
5084 38 2
5085 38 1
5086 52 1
5087 62 1
5088 5 1
5088 55 1
5089 51 1
5090 4 1
5091 70 1
5092 58 1
5092 61 1
5093 13 1
5094 20 1
5095 45 1
5096 70 1
5097 9 1
5098 60 1
5100 68 1
5101 61 1
5102 62 1
5103 71 1
5104 25 1
5104 62 1
5105 6 1
5106 33 1
5107 43 1
5108 55 1
5109 58 1
5110 38 1
5111 62 1
5112 13 1
5113 52 1
5114 13 1
5115 38 1
5116 70 1
5117 58 1
5118 59 1
5119 18 1
5119 62 1
5120 31 1
5120 49 1
5120 70 1
5121 27 1
5122 38 1
5123 33 1
5123 38 1
5123 45 1
5123 62 1
5124 21 1
5125 30 1
5125 52 1
5126 52 1
5126 70 1
5127 62 1
5128 62 1
5129 31 1
5130 13 1
5130 54 1
5130 62 1
5131 30 1
5132 55 1
5133 58 1
5134 9 1
5135 71 1
5136 25 1
5137 58 1
5138 20 1
5139 70 1
5140 17 1
5141 38 1
5142 70 1
5142 71 1
5143 58 1
5143 62 1
5144 52 1
5144 70 1
5145 13 1
5146 62 1
5147 30 1
5148 58 1
5149 70 1
5150 5 1
5151 13 1
5151 38 1
5152 2 1
5152 61 1
5153 62 1
5154 70 1
5155 51 1
5156 58 1
5157 45 1
5157 58 1
5158 14 1
5158 70 1
5159 13 1
5160 52 1
5161 63 1
5162 52 1
5163 32 1
5164 32 1
5165 70 1
5166 4 1
5167 38 1
5168 30 1
5168 31 1
5169 48 1
5170 48 1
5171 45 1
5172 68 1
5173 20 1
5174 70 1
5175 70 1
5176 51 1
5177 24 1
5178 70 1
5179 55 1
5180 65 1
5181 4 1
5182 70 1
5183 70 1
5184 70 1
5185 13 1
5186 70 1
5186 73 1
5187 45 1
5188 60 1
5188 62 1
5189 45 1
5189 70 1
5190 4 1
5191 51 1
5192 13 1
5193 46 1
5193 54 1
5194 4 1
5195 51 1
5195 52 1
5196 70 2
5197 51 2
5198 49 1
5199 70 1
5200 54 1
5201 60 1
5202 4 1
5203 41 1
5204 70 1
5205 62 1
5206 58 1
5207 60 1
5208 70 1
5208 71 2
5209 51 1
5210 52 1
5211 52 1
5212 52 1
5213 40 1
5214 52 1
5215 21 1
5215 60 1
5216 45 1
5216 70 1
5218 68 1
5218 70 1
5219 38 1
5220 6 1
5221 18 1
5222 54 1
5223 48 1
5224 70 1
5225 48 1
5226 13 1
5227 34 1
5228 38 1
5229 13 1
5229 34 1
5230 38 1
5230 59 1
5231 43 1
5232 62 1
5233 38 1
5233 61 1
5233 70 3
5233 71 1
5234 62 1
5235 58 1
5236 70 1
5237 70 1
5238 70 1
5239 70 1
5240 52 1
5241 48 1
5242 48 1
5243 70 1
5244 68 1
5245 70 1
5246 54 1
5247 54 1
5249 43 1
5250 54 1
5251 4 1
5251 38 1
5251 52 1
5251 62 1
5252 4 1
5252 70 1
5253 58 1
5254 70 1
5254 73 1
5255 70 1
5256 18 1
5257 54 1
5258 4 1
5259 45 1
5260 6 1
5260 31 1
5260 71 1
5261 49 1
5262 31 1
5262 59 1
5262 71 1
5263 20 1
5264 41 1
5266 70 1
5267 45 1
5268 65 1
5269 25 1
5270 45 1
5270 70 1
5271 9 1
5271 25 1
5271 33 1
5272 68 1
5273 13 1
5274 60 1
5275 51 1
5276 13 1
5277 51 1
5278 54 1
5278 70 1
5279 51 1
5280 52 1
5280 70 1
5281 52 1
5282 20 1
5282 45 1
5283 34 1
5283 58 1
5283 61 1
5284 68 1
5284 71 1
5285 51 1
5285 54 1
5286 58 1
5287 25 1
5288 51 1
5289 51 1
5289 71 1
5290 25 1
5291 52 1
5292 54 1
5293 58 1
5294 32 1
5294 51 1
5294 52 1
5294 61 1
5295 68 1
5297 62 1
5298 13 1
5299 13 1
5300 62 1
5300 70 1
5301 21 1
5301 38 1
5301 51 1
5301 52 2
5301 71 1
5302 54 1
5303 54 1
5304 60 1
5305 60 1
5306 52 1
5306 54 1
5307 55 1
5308 54 1
5309 20 1
5310 52 1
5311 45 1
5312 31 1
5313 23 1
5314 12 1
5314 30 1
5315 9 1
5315 49 1
5316 54 1
5317 31 1
5318 25 1
5319 25 1
5319 52 1
5320 70 1
5321 13 1
5322 20 1
5323 60 1
5324 70 1
5325 52 1
5326 68 1
5327 33 1
5327 52 1
5327 62 1
5327 71 1
5328 70 1
5329 60 1
5330 52 1
5331 32 1
5332 70 2
5333 20 1
5334 59 1
5335 62 1
5336 70 2
5337 47 1
5338 48 1
5338 63 1
5339 70 1
5340 70 1
5341 52 1
5342 13 1
5343 68 1
5344 24 1
5344 70 1
5345 62 1
5346 62 1
5347 71 1
5348 52 1
5349 43 1
5349 60 1
5350 30 1
5351 70 1
5353 28 1
5353 68 1
5354 52 1
5355 20 1
5356 60 1
5357 30 1
5358 45 1
5358 70 1
5359 31 1
5359 34 1
5360 38 1
5361 52 1
5362 43 1
5363 16 1
5364 54 1
5365 62 1
5366 52 1
5367 70 1
5368 71 1
5369 70 1
5370 70 1
5371 30 2
5371 45 2
5371 52 1
5371 55 1
5371 60 2
5371 68 3
5371 70 2
5371 71 1
5372 5 1
5373 13 1
5374 51 1
5375 62 1
5376 6 1
5376 43 1
5377 52 1
5378 54 1
5379 45 1
5380 21 1
5381 6 1
5382 38 1
5383 54 1
5384 70 1
5385 45 1
5386 52 1
5387 45 1
5387 52 1
5388 70 1
5389 13 1
5390 34 1
5391 70 1
5392 60 1
5393 46 1
5393 70 1
5394 60 1
5395 60 1
5396 58 1
5397 52 1
5398 38 1
5398 55 1
5399 12 1
5400 24 1
5401 4 1
5402 43 1
5403 52 1
5404 8 1
5405 23 1
5405 70 1
5406 52 1
5407 54 1
5408 51 1
5409 38 1
5410 70 2
5411 43 1
5412 51 1
5413 70 1
5414 6 1
5414 30 1
5415 25 1
5416 51 1
5417 52 1
5418 70 1
5419 52 1
5420 70 1
5421 38 1
5422 30 1
5422 70 2
5423 62 1
5423 70 2
5424 32 1
5425 61 1
5426 62 1
5427 54 1
5428 70 1
5429 45 1
5430 6 1
5430 32 1
5431 38 1
5431 55 1
5431 70 1
5432 38 1
5433 52 2
5433 62 1
5433 68 1
5434 4 1
5435 65 1
5436 32 1
5436 71 1
5437 34 1
5438 62 1
5439 42 1
5440 7 1
5441 32 1
5442 63 1
5443 65 1
5444 49 1
5445 65 1
5446 52 1
5447 20 1
5447 54 1
5448 65 1
5448 68 1
5448 70 1
5449 54 1
5450 20 1
5450 52 1
5451 52 1
5452 52 1
5452 71 1
5453 4 1
5454 41 1
5455 38 1
5456 70 2
5457 51 1
5457 63 1
5458 70 1
5459 70 2
5460 52 1
5461 32 1
5462 60 1
5463 41 1
5464 33 1
5465 25 1
5466 63 1
5468 38 1
5469 70 1
5470 31 1
5470 62 2
5471 25 1
5471 70 1
5472 18 1
5473 61 1
5474 58 2
5474 60 1
5474 62 1
5474 70 1
5474 71 1
5475 48 1
5476 38 1
5477 24 1
5478 52 1
5479 61 1
5480 12 1
5480 30 2
5480 51 1
5480 60 1
5480 62 1
5480 70 2
5480 71 1
5481 38 1
5482 62 1
5483 40 1
5484 60 2
5485 4 1
5485 48 1
5486 71 1
5487 54 1
5488 30 1
5488 62 1
5490 54 1
5491 58 1
5492 17 1
5492 23 1
5492 30 1
5493 14 1
5494 54 1
5495 52 1
5496 18 1
5497 70 1
5498 41 1
5499 17 1
5499 48 1
5499 68 1
5500 20 1
5500 55 1
5501 70 1
5502 41 1
5503 55 1
5504 52 1
5505 51 1
5506 45 1
5507 54 1
5508 25 1
5509 70 2
5510 52 1
5510 54 1
5511 25 1
5511 68 1
5512 52 1
5513 70 1
5514 38 1
5515 38 1
5516 4 1
5517 25 1
5518 34 1
5519 54 1
5520 4 1
5522 70 1
5523 62 1
5523 68 1
5524 68 1
5525 18 1
5526 60 1
5527 54 1
5528 48 1
5529 54 1
5529 70 1
5530 52 1
5531 14 1
5532 49 1
5533 34 1
5534 18 1
5535 20 1
5535 34 1
5536 32 1
5536 54 1
5537 59 1
5538 70 2
5539 71 1
5540 48 1
5541 54 1
5542 38 1
5543 60 1
5544 52 1
5545 52 1
5546 33 1
5546 71 1
5547 6 1
5548 38 1
5549 61 1
5550 70 1
5551 38 1
5552 52 1
5553 33 1
5554 4 1
5555 71 1
5556 62 1
5557 70 1
5558 2 1
5558 30 1
5558 38 1
5558 43 1
5558 58 1
5558 65 1
5558 68 1
5558 70 1
5559 35 1
5560 51 1
5561 20 1
5562 52 1
5563 70 1
5564 63 1
5565 38 2
5566 71 1
5567 48 1
5567 71 1
5568 71 1
5569 45 1
5569 54 1
5570 43 1
5571 4 1
5571 55 1
5572 70 1
5573 60 1
5574 54 1
5575 60 1
5576 38 1
5577 25 1
5578 71 1
5579 4 1
5580 31 1
5580 38 1
5581 50 1
5582 38 1
5583 51 1
5584 31 1
5584 70 1
5585 70 2
5586 51 1
5587 60 1
5588 38 1
5589 39 1
5590 9 1
5590 54 1
5591 5 1
5592 38 1
5593 55 2
5593 58 1
5594 51 1
5594 68 1
5595 68 1
5596 52 1
5597 62 1
5598 38 1
5599 20 1
5599 25 1
5599 52 1
5600 25 1
5601 65 1
5602 45 1
5603 62 1
5604 9 1
5605 45 1
5606 61 1
5607 60 1
5608 20 1
5609 38 1
5609 70 1
5610 58 1
5611 38 1
5611 48 1
5611 59 1
5612 71 1
5613 20 1
5614 51 1
5615 70 1
5617 70 1
5618 71 1
5619 41 1
5619 54 1
5620 63 1
5621 43 1
5622 62 1
5623 31 1
5624 63 1
5625 70 2
5626 45 1
5626 71 1
5627 71 1
5628 54 1
5629 38 1
5629 52 1
5630 26 1
5631 70 1
5632 30 1
5633 70 1
5634 13 1
5635 51 1
5636 52 1
5637 59 1
5638 38 1
5639 45 1
5640 62 1
5641 52 1
5642 6 1
5643 70 1
5644 68 1
5645 25 1
5646 40 1
5646 70 1
5647 61 1
5648 60 1
5649 70 1
5650 30 1
5650 52 1
5650 62 1
5651 52 1
5652 61 1
5653 52 1
5654 45 1
5655 6 1
5656 62 1
5657 60 1
5658 70 1
5659 16 1
5660 70 1
5661 68 1
5662 34 1
5662 62 1
5663 4 1
5663 52 1
5663 70 1
5664 41 1
5665 70 1
5666 38 1
5667 38 1
5668 38 1
5669 58 1
5670 52 1
5671 70 1
5672 70 1
5673 34 1
5674 71 1
5675 70 1
5676 70 1
5677 69 1
5678 39 1
5679 38 1
5680 13 1
5680 58 1
5681 54 1
5682 18 1
5682 68 1
5683 70 2
5684 51 1
5685 70 1
5686 70 1
5687 47 1
5687 52 1
5688 18 1
5688 30 1
5688 34 1
5688 38 1
5688 43 1
5688 71 1
5689 71 1
5690 54 1
5691 70 1
5692 13 1
5693 43 1
5694 34 2
5695 60 1
5696 4 1
5697 70 1
5698 25 1
5699 61 1
5700 70 1
5700 73 1
5701 62 1
5702 68 1
5703 70 1
5704 55 1
5705 12 2
5706 34 1
5706 61 1
5707 58 1
5707 68 1
5708 45 1
5709 30 1
5710 18 1
5711 34 1
5712 24 1
5713 51 1
5714 2 1
5715 62 1
5716 38 1
5717 20 1
5718 61 1
5719 57 1
5720 34 1
5721 25 1
5722 13 1
5723 40 1
5724 55 1
5725 71 1
5726 62 1
5728 70 1
5729 33 1
5729 38 1
5730 8 1
5731 54 1
5731 70 1
5732 70 1
5733 38 1
5734 43 1
5735 71 1
5736 70 1
5737 25 1
5738 18 1
5738 61 1
5739 4 1
5740 70 1
5741 70 1
5742 25 1
5743 51 1
5744 41 1
5746 51 1
5747 55 1
5748 5 1
5749 13 1
5749 30 1
5750 51 2
5751 2 1
5751 6 1
5752 62 1
5753 7 1
5754 49 1
5755 70 1
5756 52 1
5757 45 1
5757 62 1
5757 63 1
5758 43 1
5759 70 2
5760 31 1
5761 4 1
5762 68 1
5763 45 1
5764 9 1
5766 31 1
5766 32 1
5766 43 3
5766 54 1
5767 52 1
5768 70 1
5769 24 1
5769 31 1
5769 46 1
5769 48 1
5769 61 1
5769 62 1
5769 67 1
5769 68 1
5770 38 1
5770 45 1
5770 49 1
5771 38 1
5771 70 1
5772 54 1
5773 45 1
5774 70 1
5775 52 1
5776 63 1
5777 54 1
5778 38 1
5779 51 1
5780 13 1
5781 71 1
5782 31 1
5783 54 1
5784 71 1
5785 52 1
5786 70 1
5787 65 1
5788 38 1
5789 71 1
5790 4 1
5790 43 1
5791 18 1
5791 52 1
5791 70 1
5792 25 1
5792 49 1
5793 25 1
5794 38 1
5795 2 1
5796 43 1
5797 52 1
5798 62 1
5799 70 1
5800 10 1
5801 62 1
5802 38 1
5803 70 1
5804 12 1
5804 63 1
5805 70 1
5806 71 1
5807 34 1
5808 52 1
5808 70 1
5809 70 1
5810 70 1
5811 38 1
5811 67 1
5812 49 1
5813 54 1
5814 20 1
5814 34 1
5815 70 1
5816 39 1
5817 42 1
5818 43 1
5819 45 1
5819 70 1
5820 45 1
5820 49 1
5821 25 1
5822 39 1
5823 60 1
5823 71 1
5824 54 1
5825 10 1
5826 25 1
5827 23 1
5828 48 1
5829 34 1
5830 25 1
5831 34 1
5832 54 1
5833 48 1
5834 24 1
5835 52 1
5836 30 1
5837 52 1
5838 52 1
5839 70 1
5840 54 1
5841 70 1
5842 52 1
5844 70 1
5845 71 1
5846 70 1
5847 43 1
5847 68 1
5848 5 1
5849 60 1
5850 14 1
5851 38 1
5852 52 1
5853 45 1
5853 61 1
5853 71 1
5854 45 1
5855 68 1
5857 70 1
5858 58 1
5859 70 1
5860 38 1
5861 71 1
5862 6 1
5862 71 1
5863 55 1
5864 70 1
5865 62 1
5866 32 1
5866 38 1
5866 71 1
5867 70 1
5868 54 1
5869 70 1
5870 70 1
5871 18 1
5871 63 1
5872 37 1
5873 43 1
5873 52 1
5873 60 1
5874 70 1
5875 6 1
5876 68 1
5877 4 1
5878 52 1
5879 43 1
5880 70 1
5881 52 1
5882 52 1
5883 24 1
5884 62 1
5885 2 1
5886 62 1
5887 62 1
5887 71 1
5888 54 1
5889 52 1
5889 71 1
5890 13 1
5891 34 1
5892 23 1
5893 70 1
5894 71 1
5895 34 1
5895 52 1
5896 62 1
5897 45 1
5898 18 2
5899 54 1
5900 68 1
5901 4 1
5901 71 1
5902 68 1
5903 64 1
5904 52 1
5905 38 1
5906 70 1
5907 68 1
5908 20 1
5909 55 1
5910 62 1
5911 62 1
5912 62 1
5913 70 1
5914 50 1
5915 71 1
5916 45 1
5916 70 1
5917 32 1
5917 41 1
5917 71 1
5918 70 1
5919 40 1
5920 30 1
5921 43 1
5921 71 1
5922 70 1
5923 4 1
5924 54 1
5925 20 1
5926 70 1
5927 71 1
5928 54 1
5928 60 1
5929 70 1
5930 70 1
5931 17 1
5932 25 1
5932 54 1
5933 25 1
5934 48 1
5935 32 1
5936 52 1
5937 52 1
5938 45 1
5939 18 1
5940 38 1
5941 45 1
5942 52 1
5942 60 1
5943 54 1
5944 68 1
5945 70 1
5946 38 1
5947 54 2
5948 4 1
5949 70 1
5950 25 1
5951 68 1
5952 30 1
5953 2 1
5953 62 1
5954 52 1
5955 38 1
5956 70 1
5957 20 1
5958 70 1
5959 70 1
5960 18 1
5961 43 1
5962 13 1
5962 70 1
5963 51 1
5964 70 1
5965 62 1
5965 63 1
5965 65 1
5966 65 1
5967 2 1
5968 70 1
5969 13 1
5970 6 1
5971 32 1
5972 52 1
5973 54 1
5974 6 1
5974 70 1
5975 4 1
5975 70 1
5976 31 1
5976 70 1
5977 58 1
5978 45 1
5979 24 1
5979 63 1
5980 38 1
5981 62 1
5982 48 1
5983 38 1
5984 58 1
5985 68 1
5986 70 1
5987 62 1
5988 70 1
5989 52 1
5990 62 1
5991 70 1
5992 71 1
5993 61 1
5994 60 1
5995 13 1
5995 54 1
5995 58 1
5996 70 1
5996 71 1
5997 70 1
5998 14 1
5999 58 1
6000 49 1
6001 10 1
6001 24 1
6002 52 1
6002 70 1
6002 71 1
6003 38 1
6004 40 2
6005 62 1
6006 70 1
6007 61 1
6008 39 1
6009 71 1
6010 13 1
6011 52 1
6012 13 1
6013 71 1
6014 70 1
6015 34 1
6016 48 1
6017 39 1
6018 43 1
6019 38 1
6020 12 1
6021 18 1
6022 51 1
6022 52 2
6023 54 1
6023 70 1
6024 48 2
6025 62 1
6026 40 1
6027 52 1
6029 61 1
6030 38 1
6031 55 1
6032 70 1
6033 63 1
6034 34 1
6035 70 1
6036 34 1
6037 71 1
6038 70 1
6039 52 1
6040 20 1
6041 62 1
6042 5 1
6043 62 1
6043 71 1
6044 71 1
6046 30 1
6047 52 1
6048 70 1
6048 71 1
6049 62 1
6050 62 1
6051 52 1
6052 70 1
6053 4 1
6054 32 1
6055 70 1
6057 70 1
6058 55 1
6059 18 1
6060 12 1
6061 4 1
6061 62 1
6062 9 1
6062 70 1
6063 30 1
6064 45 1
6064 59 1
6065 38 1
6066 51 1
6067 70 1
6068 70 1
6069 45 1
6070 63 1
6071 51 1
6072 71 1
6073 32 1
6074 61 1
6075 38 1
6076 13 1
6076 31 1
6077 49 1
6078 4 1
6078 39 1
6079 58 1
6079 70 1
6080 60 1
6081 70 1
6082 20 1
6082 38 1
6083 6 1
6083 70 1
6084 70 1
6085 52 1
6087 71 1
6088 20 1
6088 54 1
6089 49 1
6090 62 1
6091 5 1
6091 31 1
6092 43 2
6093 9 1
6094 70 1
6095 58 1
6096 71 1
6097 34 1
6098 4 1
6099 52 1
6100 20 1
6101 38 1
6102 38 1
6102 70 2
6103 43 1
6104 45 1
6105 20 1
6106 31 1
6107 52 2
6108 5 1
6109 25 1
6109 51 3
6110 4 1
6111 34 1
6112 49 1
6112 51 1
6112 54 1
6113 18 1
6114 9 1
6115 62 1
6116 52 1
6116 63 1
6117 71 1
6118 25 1
6118 38 1
6118 71 2
6119 71 1
6121 71 1
6122 71 1
6123 6 1
6124 51 1
6125 70 1
6126 70 2
6127 34 1
6128 25 1
6128 70 1
6129 71 1
6130 38 1
6131 44 1
6132 60 1
6133 70 1
6134 32 1
6134 71 1
6135 33 1
6136 45 1
6137 54 1
6138 38 1
6139 54 1
6140 9 1
6141 49 1
6141 68 1
6142 70 1
6143 45 1
6143 70 1
6144 54 1
6145 70 1
6146 71 1
6147 4 1
6148 9 1
6149 70 1
6150 9 1
6150 24 1
6151 30 1
6152 70 1
6153 70 1
6154 33 1
6155 52 1
6156 34 1
6157 51 1
6158 61 1
6159 52 1
6160 58 1
6161 34 1
6162 33 1
6162 45 1
6163 71 1
6164 4 1
6165 23 1
6165 59 1
6166 34 1
6167 9 1
6167 70 1
6168 70 1
6169 43 1
6170 26 1
6171 70 1
6172 32 1
6172 54 1
6173 43 1
6174 70 1
6175 45 1
6176 70 1
6177 48 1
6178 52 1
6179 45 1
6179 70 1
6180 2 1
6180 68 1
6181 38 1
6182 51 1
6183 45 1
6184 30 1
6185 38 1
6186 51 1
6187 60 1
6188 43 1
6188 58 1
6189 70 1
6190 70 1
6191 58 1
6192 20 1
6193 45 1
6193 62 1
6194 18 1
6195 25 1
6196 33 1
6197 54 1
6198 55 1
6199 34 1
6200 4 1
6200 52 1
6201 54 1
6202 6 1
6203 70 1
6204 70 1
6205 70 1
6206 55 1
6207 70 1
6208 70 1
6209 70 2
6210 70 1
6211 52 1
6212 70 1
6213 51 1
6213 52 1
6214 18 1
6214 26 1
6215 32 1
6216 48 1
6217 45 1
6218 52 1
6219 51 1
6220 52 1
6220 70 1
6221 70 1
6221 71 1
6222 38 1
6223 30 1
6223 60 1
6224 20 1
6225 62 1
6226 70 1
6227 38 1
6228 2 1
6229 52 1
6230 31 1
6231 45 1
6231 54 1
6233 45 1
6234 68 1
6235 4 1
6236 4 1
6237 58 1
6238 38 1
6239 54 1
6239 70 1
6240 70 1
6241 62 1
6241 70 1
6242 49 1
6243 24 1
6244 52 1
6245 70 1
6246 34 1
6247 52 1
6248 52 1
6249 70 1
6250 62 1
6251 20 1
6252 52 1
6253 71 1
6254 45 1
6255 18 1
6256 48 1
6257 30 1
6257 52 1
6258 30 1
6259 70 1
6260 25 1
6261 20 1
6262 62 1
6263 4 1
6264 30 2
6265 12 1
6266 45 1
6266 68 1
6267 18 1
6268 9 1
6269 24 1
6270 70 1
6271 45 1
6271 55 1
6271 70 1
6272 24 1
6273 6 1
6274 55 1
6275 70 1
6276 18 1
6277 38 1
6278 51 1
6279 51 1
6280 60 1
6281 9 1
6281 13 1
6282 6 1
6283 2 1
6284 58 1
6285 12 1
6286 45 1
6287 54 1
6288 34 1
6289 39 1
6289 45 1
6289 52 1
6290 68 1
6291 24 1
6291 34 1
6292 70 2
6293 24 1
6294 54 1
6295 71 1
6296 20 1
6296 51 1
6297 70 1
6298 55 1
6299 24 1
6299 30 1
6299 45 1
6300 17 1
6300 49 1
6300 60 1
6301 48 1
6302 71 1
6303 54 1
6304 48 1
6305 70 1
6307 62 1
6308 48 1
6309 44 1
6310 51 1
6312 52 1
6313 70 1
6314 38 1
6315 52 1
6316 70 1
6317 71 1
6318 70 1
6319 4 1
6319 62 2
6319 70 1
6319 71 1
6320 52 1
6321 13 1
6322 13 1
6323 52 1
6323 70 1
6324 65 1
6325 43 1
6326 71 1
6327 70 1
6329 25 1
6329 54 1
6330 13 1
6330 54 1
6331 6 1
6332 13 1
6333 17 1
6334 70 2
6335 70 1
6336 69 1
6336 70 1
6338 68 1
6339 20 1
6340 30 1
6340 71 1
6341 51 1
6342 60 1
6342 70 2
6343 49 1
6344 70 1
6345 71 1
6346 7 1
6347 34 1
6347 70 1
6348 25 1
6349 51 2
6350 49 1
6350 59 1
6351 65 1
6352 54 1
6353 49 1
6353 70 1
6354 62 1
6355 70 1
6356 52 1
6357 48 2
6358 63 1
6359 39 1
6360 70 1
6361 45 1
6362 70 1
6363 20 1
6363 70 1
6364 23 1
6365 58 1
6365 68 1
6366 45 1
6366 70 1
6367 4 1
6368 13 1
6368 14 2
6369 70 1
6370 58 1
6371 59 2
6372 54 2
6373 43 1
6374 38 1
6375 17 1
6376 68 1
6377 52 1
6378 71 1
6379 2 1
6379 57 1
6379 70 1
6380 51 1
6381 34 1
6382 70 2
6383 52 1
6384 32 1
6385 70 1
6386 38 1
6387 20 1
6388 61 1
6388 70 2
6389 70 1
6390 20 1
6391 55 1
6392 47 1
6393 71 1
6394 46 1
6395 60 1
6396 14 1
6396 48 1
6397 32 1
6398 60 1
6399 13 1
6399 71 1
6400 69 1
6401 71 1
6402 70 1
6403 30 1
6404 56 1
6404 58 1
6405 18 1
6406 26 1
6407 18 1
6407 48 1
6408 20 2
6408 62 1
6409 62 1
6410 20 1
6411 45 1
6412 70 1
6413 18 1
6414 51 1
6415 45 1
6416 52 1
6417 62 1
6418 52 1
6419 70 1
6420 68 1
6421 34 1
6422 20 1
6423 31 1
6424 70 1
6425 30 2
6425 61 1
6425 65 1
6426 51 1
6427 38 1
6428 30 1
6429 62 1
6430 38 1
6431 52 1
6432 71 1
6433 54 1
6434 60 1
6435 48 1
6436 14 1
6437 54 1
6437 62 1
6438 5 1
6438 30 1
6439 30 1
6440 3 1
6441 52 1
6442 18 1
6442 54 1
6443 13 1
6443 70 1
6444 58 1
6445 61 1
6446 67 1
6447 33 1
6447 43 1
6449 70 1
6450 41 1
6450 70 1
6451 54 1
6452 71 1
6453 70 1
6454 41 1
6455 52 1
6456 13 1
6456 46 1
6457 38 1
6458 48 1
6459 70 1
6460 38 1
6460 52 1
6461 52 1
6462 62 1
6463 52 1
6464 71 1
6465 70 1
6466 60 1
6467 4 1
6467 62 1
6467 71 1
6468 12 1
6469 49 1
6470 25 1
6470 51 1
6471 38 1
6471 60 1
6473 24 1
6474 71 1
6475 20 1
6476 70 1
6477 2 1
6477 4 1
6477 9 1
6477 12 1
6477 13 1
6477 14 1
6477 18 1
6477 20 4
6477 24 2
6477 25 1
6477 30 7
6477 31 4
6477 32 2
6477 38 2
6477 39 1
6477 43 1
6477 45 1
6477 46 1
6477 51 5
6477 54 2
6477 55 1
6477 59 4
6477 60 4
6477 61 2
6477 62 2
6477 68 2
6477 70 12
6477 71 3
6478 54 1
6479 45 1
6479 54 1
6480 25 1
6480 52 1
6481 38 1
6481 48 1
6482 45 1
6483 24 1
6484 70 1
6485 52 1
6487 71 1
6488 54 1
6488 71 1
6489 63 1
6490 70 1
6491 54 1
6492 13 1
6493 51 1
6494 38 1
6495 6 1
6495 52 1
6495 68 1
6496 54 1
6497 24 1
6498 63 1
6499 62 1
6500 54 1
6501 71 1
6502 70 1
6503 30 1
6504 49 1
6505 60 1
6506 60 1
6507 63 1
6508 54 1
6509 49 1
6510 30 1
6511 49 2
6512 68 1
6513 54 1
6513 70 1
6514 62 2
6515 41 1
6516 70 1
6517 52 1
6518 70 1
6519 25 1
6520 34 1
6521 20 1
6522 38 1
6522 62 1
6523 70 1
6524 71 1
6525 60 1
6526 20 1
6527 52 1
6528 70 2
6529 54 1
6530 68 1
6531 67 1
6532 2 1
6533 52 1
6534 61 1
6535 70 1
6536 49 1
6537 40 1
6537 54 1
6538 51 1
6539 13 1
6540 58 1
6541 54 1
6542 71 1
6543 34 1
6543 58 1
6544 45 1
6544 54 1
6545 45 1
6546 9 1
6547 13 1
6547 40 1
6548 34 1
6548 58 1
6548 61 1
6549 70 1
6550 9 1
6551 30 1
6552 30 1
6553 70 1
6554 70 1
6555 30 1
6556 60 1
6556 70 1
6557 54 1
6558 12 1
6559 54 1
6560 32 1
6561 54 1
6562 5 1
6563 13 1
6564 38 2
6564 45 1
6564 52 1
6564 70 1
6565 52 1
6566 38 1
6566 54 1
6567 13 1
6567 25 1
6567 30 1
6567 43 1
6567 45 1
6567 51 1
6567 52 1
6567 68 1
6568 13 1
6569 13 1
6570 70 1
6571 14 1
6572 71 1
6573 4 1
6574 13 1
6575 62 1
6576 54 1
6577 60 1
6578 44 1
6578 61 1
6579 70 1
6580 70 1
6581 38 1
6582 41 1
6582 43 1
6583 70 1
6584 52 1
6585 52 1
6586 70 1
6587 58 1
6588 54 1
6589 18 1
6590 4 1
6590 66 1
6591 13 1
6592 70 1
6593 12 1
6594 38 1
6595 43 1
6596 68 1
6597 38 1
6598 54 1
6599 70 1
6600 62 1
6601 59 1
6602 60 1
6603 18 1
6603 55 1
6604 49 1
6605 30 1
6606 6 1
6607 4 1
6607 5 1
6608 56 1
6609 71 1
6610 61 1
6611 25 1
6612 31 1
6613 12 1
6614 70 1
6615 45 1
6616 9 1
6617 34 1
6618 48 1
6619 58 1
6620 70 1
6621 38 2
6622 20 1
6623 70 1
6625 38 1
6626 60 1
6627 38 1
6628 4 1
6629 70 1
6630 71 1
6631 62 1
6632 70 1
6633 62 1
6634 52 1
6634 71 1
6635 63 1
6636 31 1
6636 32 1
6636 54 1
6637 54 1
6638 70 1
6639 13 1
6640 51 1
6642 18 1
6643 52 1
6644 68 1
6646 4 1
6646 70 1
6647 70 2
6647 71 1
6649 10 1
6650 43 1
6651 26 1
6652 70 1
6654 13 1
6655 70 1
6656 52 1
6657 48 1
6658 54 1
6659 38 1
6660 52 1
6661 68 1
6662 5 1
6663 48 1
6664 70 1
6665 62 1
6666 73 1
6667 30 1
6668 2 1
6668 60 1
6669 44 1
6670 70 1
6671 70 1
6672 70 1
6673 60 1
6674 44 2
6675 31 1
6676 45 1
6676 71 1
6677 51 1
6677 60 1
6678 70 1
6679 14 1
6679 24 1
6679 68 1
6679 71 1
6680 45 1
6681 62 1
6682 70 1
6683 30 1
6684 51 1
6685 4 1
6685 7 1
6686 70 1
6687 62 1
6689 65 1
6690 70 1
6691 70 1
6692 58 1
6693 9 1
6693 45 1
6694 62 1
6694 70 1
6695 68 1
6695 70 1
6696 9 1
6697 52 1
6698 38 1
6699 54 1
6699 70 1
6700 38 1
6700 70 1
6701 9 1
6701 45 1
6702 5 1
6703 70 1
6704 71 1
6705 51 1
6706 31 1
6707 58 1
6708 65 1
6709 70 1
6710 52 1
6711 4 1
6712 62 1
6713 30 1
6714 60 1
6715 54 1
6715 70 1
6716 65 1
6717 61 1
6718 38 1
6719 70 1
6720 30 1
6720 57 1
6721 70 2
6722 61 1
6723 6 1
6723 12 1
6723 14 1
6723 20 1
6723 23 1
6723 50 1
6723 51 1
6723 70 2
6724 52 1
6725 57 1
6726 2 1
6727 70 2
6728 52 1
6729 54 1
6730 62 1
6731 32 1
6732 6 1
6733 38 1
6734 71 1
6735 42 1
6736 54 1
6737 38 1
6738 54 1
6739 70 1
6740 18 1
6741 59 1
6742 71 1
6743 45 1
6744 51 1
6745 59 1
6746 13 1
6746 70 2
6747 62 1
6747 70 1
6748 48 1
6748 70 1
6749 54 1
6749 59 1
6749 60 1
6750 9 1
6750 51 1
6751 70 1
6752 30 1
6753 62 1
6754 51 1
6755 17 1
6756 55 1
6757 20 1
6758 58 1
6759 13 1
6760 52 1
6761 45 1
6762 18 1
6763 25 1
6764 25 1
6765 71 1
6766 13 1
6767 45 1
6768 51 1
6770 20 1
6770 51 1
6771 45 1
6772 13 1
6773 61 1
6774 9 1
6775 38 1
6775 68 1
6775 71 2
6776 62 1
6777 54 1
6777 62 1
6778 58 1
6779 32 1
6779 58 1
6780 59 1
6781 70 1
6782 45 1
6782 51 1
6783 48 1
6784 70 1
6785 38 1
6786 52 1
6787 38 1
6788 54 1
6789 70 1
6790 70 1
6791 70 1
6792 20 1
6793 71 1
6794 59 1
6795 52 1
6796 51 1
6797 52 1
6797 54 1
6798 62 1
6799 25 1
6799 54 1
6800 59 1
6801 55 1
6802 61 1
6803 70 1
6804 51 1
6805 62 1
6806 4 1
6806 62 1
6807 25 1
6808 13 1
6809 31 1
6810 59 1
6811 72 1
6812 54 1
6813 34 1
6814 54 1
6814 70 1
6815 51 1
6816 70 1
6817 32 1
6817 71 1
6818 25 1
6818 43 1
6819 51 1
6819 54 1
6820 49 1
6821 70 1
6822 69 1
6823 51 1
6825 51 1
6825 52 1
6826 54 1
6827 65 1
6828 70 1
6829 33 1
6830 31 1
6831 70 1
6832 55 1
6833 12 1
6833 13 1
6833 54 1
6833 62 1
6833 68 1
6834 70 1
6835 10 1
6836 38 1
6837 54 1
6838 32 1
6839 13 1
6840 58 1
6841 45 1
6842 60 1
6843 70 1
6844 52 1
6845 55 1
6846 52 1
6847 70 1
6848 70 1
6849 45 1
6850 65 1
6851 45 1
6852 38 1
6853 70 1
6854 54 1
6855 52 1
6856 52 1
6857 62 1
6858 32 1
6859 32 1
6860 51 1
6860 70 1
6861 51 1
6862 13 1
6864 58 1
6865 52 1
6865 71 1
6866 36 1
6867 52 1
6868 45 1
6869 18 1
6870 38 1
6870 70 1
6871 25 1
6872 70 1
6873 52 1
6874 70 1
6875 23 1
6876 9 1
6877 71 1
6878 20 1
6879 31 1
6880 48 1
6881 65 1
6882 63 1
6883 51 1
6884 14 1
6885 55 1
6886 43 1
6886 52 1
6886 61 1
6887 30 1
6888 21 1
6888 31 1
6889 64 1
6890 51 1
6891 61 1
6892 54 1
6893 10 1
6893 40 1
6894 9 1
6894 70 1
6895 52 1
6896 60 1
6897 54 1
6898 70 1
6899 70 1
6900 46 1
6901 14 1
6902 37 1
6904 70 1
6905 70 1
6906 71 1
6907 70 1
6908 54 1
6908 70 1
6909 46 1
6910 38 1
6911 62 1
6912 70 1
6913 70 1
6914 18 1
6915 70 1
6918 51 1
6919 70 1
6920 5 1
6920 34 1
6921 65 1
6922 70 1
6923 52 1
6924 45 1
6924 70 1
6925 63 1
6926 23 1
6926 68 1
6927 45 1
6927 71 1
6928 12 1
6929 45 1
6930 54 1
6931 32 1
6933 39 1
6933 54 1
6934 24 1
6934 70 1
6935 9 1
6935 62 1
6935 70 1
6936 55 1
6936 62 1
6937 61 1
6938 54 1
6938 70 1
6939 43 1
6940 2 1
6940 45 2
6941 4 1
6941 48 1
6942 47 1
6942 55 1
6943 45 1
6944 31 1
6945 52 1
6946 31 1
6947 62 1
6948 25 1
6949 70 1
6950 38 1
6951 68 1
6951 70 1
6952 32 1
6952 70 1
6952 71 1
6954 62 1
6955 38 1
6956 18 1
6956 68 1
6957 4 1
6958 70 2
6959 54 1
6960 70 1
6961 55 1
6962 70 3
6963 55 1
6965 52 1
6965 60 1
6965 70 1
6966 65 1
6967 6 1
6968 62 1
6969 62 1
6970 59 1
6972 34 1
6973 71 1
6974 70 1
6975 65 1
6975 70 1
6976 61 1
6977 52 1
6978 60 1
6979 34 1
6980 51 1
6981 13 1
6982 62 1
6983 54 1
6984 6 1
6984 32 1
6984 70 1
6985 32 1
6986 65 1
6987 34 1
6988 45 1
6989 34 1
6990 13 1
6990 38 1
6990 41 2
6990 45 1
6990 52 2
6990 54 1
6990 58 1
6990 62 2
6990 65 1
6990 68 1
6990 70 2
6990 71 3
6991 3 1
6991 10 1
6991 13 1
6991 34 1
6991 39 1
6991 40 1
6991 59 1
6991 62 1
6991 70 2
6991 71 1
6992 5 1
6992 38 1
6992 71 2
6993 9 2
6993 23 1
6993 24 1
6993 25 1
6993 31 1
6993 34 1
6993 45 1
6993 48 1
6993 51 1
6993 60 1
6993 62 2
6993 70 2
6994 70 2
6995 70 2
6996 57 1
6997 62 1
6998 49 1
6999 70 1
7000 30 1
7000 70 1
7001 25 1
7002 71 1
7003 58 1
7004 55 1
7004 70 1
7005 70 1
7006 20 1
7006 41 1
7007 60 1
7008 54 1
7009 31 1
7010 70 1
7011 70 1
7012 43 1
7013 68 1
7014 70 1
7015 54 1
7016 32 1
7016 54 1
7017 71 1
7018 48 1
7019 51 1
7020 70 1
7021 33 1
7021 68 1
7022 4 1
7023 12 1
7024 4 1
7025 18 1
7026 62 1
7027 70 1
7028 62 1
7029 70 1
7030 54 2
7031 9 1
7032 52 1
7033 25 1
7034 26 1
7035 68 1
7036 52 1
7036 55 1
7036 62 1
7037 18 1
7037 71 1
7039 70 1
7040 70 1
7041 70 1
7042 70 2
7043 71 1
7044 60 1
7045 70 1
7046 58 1
7047 18 1
7048 71 1
7049 71 1
7050 70 1
7051 9 1
7052 48 1
7053 30 1
7054 70 1
7055 61 1
7056 65 1
7057 62 1
7058 9 1
7059 58 1
7060 70 1
7061 25 1
7061 70 1
7062 70 1
7063 52 1
7064 39 1
7065 4 1
7066 70 1
7067 30 1
7068 45 1
7069 54 1
7070 54 1
7071 70 1
7072 60 1
7073 71 1
7074 72 1
7075 49 1
7075 62 1
7076 70 1
7077 43 1
7078 52 1
7079 70 1
7080 70 1
7081 51 1
7082 70 1
7083 52 1
7084 70 1
7085 71 1
7086 20 1
7086 32 1
7086 70 1
7087 38 1
7088 61 1
7089 70 1
7090 34 1
7091 23 1
7092 70 1
7093 43 1
7094 62 1
7095 70 2
7096 24 1
7097 51 1
7098 40 1
7100 12 1
7100 71 1
7101 48 1
7102 52 1
7103 38 1
7104 54 1
7105 70 1
7106 52 1
7107 18 1
7108 59 1
7109 38 1
7110 24 1
7110 70 1
7111 54 1
7112 70 1
7113 61 1
7114 39 1
7115 65 1
7116 70 1
7117 21 1
7118 62 1
7119 16 1
7120 70 1
7121 45 1
7122 45 1
7123 48 1
7124 51 1
7125 62 1
7126 70 1
7127 10 1
7128 55 1
7129 36 1
7130 38 1
7131 34 1
7131 60 1
7132 70 1
7133 70 2
7134 70 1
7136 13 1
7137 38 1
7137 51 1
7137 70 1
7138 55 1
7139 71 1
7140 52 1
7140 54 1
7141 24 1
7142 62 1
7143 9 1
7144 68 1
7145 70 1
7146 45 1
7147 52 1
7148 38 1
7149 49 1
7151 18 1
7152 68 2
7153 52 1
7154 38 1
7156 70 1
7157 54 1
7158 38 1
7159 25 1
7160 70 1
7161 9 1
7162 71 1
7163 57 1
7164 25 1
7164 68 1
7165 45 1
7166 70 1
7167 38 1
7169 30 1
7170 70 1
7171 30 1
7172 44 1
7173 62 1
7174 45 1
7175 70 1
7176 55 1
7177 61 1
7178 44 1
7178 71 1
7179 70 1
7180 52 1
7181 70 1
7182 54 1
7183 68 1
7184 25 1
7184 43 1
7184 54 1
7184 65 1
7184 70 1
7185 63 1
7186 33 1
7186 34 1
7186 45 1
7187 39 1
7188 70 1
7188 71 1
7189 13 1
7190 30 1
7190 43 1
7191 68 1
7192 54 1
7193 30 1
7194 20 1
7195 55 1
7196 49 1
7197 70 1
7198 52 1
7198 70 1
7199 62 1
7200 48 1
7201 61 1
7202 60 1
7203 70 1
7204 4 1
7204 70 1
7205 51 1
7205 62 1
7206 62 1
7206 70 1
7207 70 1
7208 30 1
7209 48 1
7209 54 1
7210 55 1
7211 54 1
7212 70 1
7213 71 1
7214 71 1
7215 61 1
7215 70 1
7216 62 1
7217 52 1
7218 30 1
7218 31 1
7218 45 1
7218 54 1
7218 70 2
7219 30 1
7219 61 1
7220 20 1
7221 17 1
7222 38 1
7223 4 1
7224 52 1
7225 68 1
7226 70 1
7227 48 1
7228 54 1
7229 55 1
7230 38 1
7231 69 1
7232 51 1
7233 20 1
7234 51 1
7235 70 1
7236 38 1
7237 52 1
7238 2 1
7239 63 1
7241 9 2
7241 51 1
7241 62 1
7242 52 1
7243 59 1
7244 71 1
7245 52 1
7246 41 1
7247 45 2
7248 70 1
7249 25 1
7250 10 1
7250 32 1
7251 70 1
7252 52 1
7253 70 1
7254 65 1
7254 70 1
7255 30 1
7256 62 1
7257 70 1
7258 34 1
7259 45 1
7260 5 1
7261 62 1
7262 38 1
7263 31 1
7264 70 2
7265 62 1
7266 20 1
7267 12 1
7269 54 1
7269 70 1
7270 52 1
7271 24 1
7272 52 1
7273 70 1
7274 62 2
7274 70 1
7275 65 1
7276 38 1
7277 71 1
7278 51 1
7279 33 1
7280 70 1
7281 20 1
7282 55 1
7283 54 1
7284 70 1
7285 71 1
7286 32 1
7287 24 1
7288 51 1
7289 54 1
7290 56 1
7291 45 1
7292 38 1
7293 62 1
7294 45 1
7295 54 1
7295 70 1
7296 32 1
7297 71 1
7298 65 1
7299 45 1
7300 70 1
7301 8 1
7302 54 1
7302 62 1
7303 71 1
7304 71 1
7305 52 1
7306 38 1
7306 63 1
7307 70 1
7308 45 1
7309 68 1
7310 55 1
7310 71 1
7311 57 1
7312 12 1
7313 52 1
7314 68 1
7315 52 1
7316 6 1
7317 45 1
7318 46 1
7319 20 1
7320 51 2
7321 45 1
7321 52 1
7322 39 1
7323 12 1
7324 13 1
7325 45 1
7327 55 1
7328 68 1
7329 44 1
7329 52 1
7329 55 1
7329 71 2
7330 38 1
7331 30 1
7332 42 1
7333 70 1
7334 45 1
7335 31 1
7335 55 1
7336 54 1
7337 52 1
7338 70 1
7339 38 1
7339 58 3
7340 38 2
7340 70 1
7341 38 1
7342 52 1
7342 55 1
7343 70 1
7344 30 1
7344 34 1
7345 10 1
7346 51 1
7346 68 1
7347 4 1
7348 71 1
7349 68 1
7350 49 1
7351 31 1
7351 44 1
7352 38 1
7353 51 1
7354 33 1
7355 32 1
7356 52 1
7357 31 1
7357 62 1
7358 41 1
7358 70 1
7359 70 1
7360 43 1
7361 50 1
7361 70 1
7361 71 1
7362 5 1
7363 45 1
7364 71 1
7365 30 1
7365 54 1
7366 71 1
7367 49 1
7368 6 1
7369 60 1
7370 70 1
7371 46 1
7372 54 2
7373 52 1
7374 70 1
7375 68 1
7376 70 1
7377 38 1
7378 4 1
7378 54 1
7379 4 1
7380 51 1
7380 70 1
7381 70 1
7382 9 1
7382 30 1
7382 51 2
7382 68 1
7383 9 2
7384 70 1
7385 51 1
7386 62 1
7387 54 2
7388 30 1
7389 32 1
7390 52 1
7391 10 1
7391 46 1
7392 10 1
7393 6 1
7394 34 1
7395 70 1
7396 51 1
7397 60 1
7398 62 1
7399 46 1
7400 51 1
7401 70 1
7402 45 1
7402 70 1
7403 55 1
7404 20 1
7405 45 1
7405 48 1
7406 52 1
7407 4 1
7407 52 1
7408 38 1
7408 70 1
7409 60 2
7410 52 1
7411 18 1
7412 70 2
7414 4 1
7415 38 1
7416 68 1
7417 55 1
7418 25 1
7419 4 1
7420 52 1
7421 6 1
7421 7 1
7421 9 1
7421 10 1
7421 13 1
7421 18 1
7421 20 4
7421 21 1
7421 32 5
7421 33 1
7421 43 1
7421 45 2
7421 51 1
7421 54 2
7421 55 1
7421 58 2
7421 61 3
7421 62 2
7421 65 1
7422 52 1
7423 63 1
7424 58 1
7425 52 1
7426 13 1
7426 55 1
7427 25 1
7427 54 1
7427 70 1
7428 52 1
7429 70 1
7430 52 2
7431 58 1
7432 48 1
7433 62 1
7434 45 1
7435 25 1
7436 52 1
7437 4 1
7437 38 1
7438 38 1
7439 62 1
7440 38 1
7441 52 1
7442 61 1
7443 34 1
7444 46 1
7444 68 1
7444 71 1
7445 65 1
7446 70 1
7447 10 1
7447 68 1
7448 52 1
7449 12 1
7450 70 1
7451 52 1
7451 61 1
7452 43 1
7453 62 1
7454 51 1
7455 51 1
7456 52 2
7457 52 1
7457 70 1
7458 48 1
7459 43 1
7459 54 1
7460 68 2
7461 60 1
7463 9 1
7464 70 1
7465 32 1
7465 60 1
7466 68 1
7467 70 1
7468 23 1
7469 70 1
7470 68 1
7471 71 1
7472 48 1
7473 4 1
7474 26 1
7475 70 1
7476 70 1
7478 52 1
7479 70 1
7480 70 1
7481 70 1
7482 25 1
7483 70 1
7484 34 1
7485 71 1
7486 30 1
7487 51 1
7488 71 1
7489 70 1
7490 52 1
7491 24 1
7492 31 1
7493 64 1
7494 13 1
7495 30 1
7495 70 1
7496 59 1
7497 54 1
7497 70 1
7498 4 1
7499 71 2
7500 62 1
7501 70 1
7502 52 1
7503 40 1
7504 62 1
7505 12 1
7506 63 1
7507 2 1
7508 4 1
7508 71 1
7509 38 1
7510 58 1
7510 70 1
7511 62 1
7512 18 1
7513 30 1
7514 70 1
7515 32 1
7515 58 1
7516 68 1
7517 45 1
7518 54 1
7519 52 1
7520 38 1
7521 54 1
7522 71 1
7523 45 1
7523 49 1
7524 45 1
7525 31 1
7526 4 1
7527 48 1
7528 13 1
7529 12 1
7530 45 1
7531 70 1
7532 70 1
7532 71 1
7533 25 1
7533 54 1
7534 54 1
7535 6 1
7536 48 1
7537 18 1
7538 70 1
7539 52 1
7540 10 1
7541 17 1
7542 25 2
7542 52 1
7542 58 1
7542 62 1
7542 70 1
7543 62 1
7544 70 2
7545 5 1
7546 45 1
7547 68 1
7548 13 1
7548 68 1
7549 70 1
7550 41 1
7551 52 1
7552 51 1
7553 41 1
7553 62 1
7554 63 1
7555 17 1
7555 34 1
7556 59 1
7556 71 1
7557 62 1
7558 20 1
7558 40 1
7559 13 1
7560 52 1
7561 4 1
7562 52 1
7563 68 1
7564 51 1
7565 58 1
7566 31 1
7567 54 1
7568 51 1
7569 55 1
7569 68 1
7569 70 1
7570 54 1
7571 10 1
7571 68 1
7572 54 1
7573 61 1
7574 31 1
7575 38 1
7575 70 1
7576 70 1
7577 61 1
7578 52 1
7579 39 1
7580 23 1
7580 54 1
7581 70 1
7582 34 1
7582 49 1
7583 70 1
7584 43 1
7584 58 1
7584 70 1
7585 61 1
7586 13 1
7587 70 1
7588 13 1
7588 51 1
7589 13 1
7590 38 1
7590 52 1
7591 52 1
7592 38 1
7593 18 1
7594 45 1
7595 71 1
7596 70 2
7597 52 1
7598 25 1
7599 43 1
7600 13 1
7601 68 1
7602 38 1
7603 4 1
7604 13 1
7605 71 1
7606 52 1
7607 9 1
7608 52 1
7609 69 1
7610 51 1
7610 70 1
7611 65 1
7612 70 1
7613 70 2
7614 60 1
7615 48 1
7616 59 1
7617 18 1
7618 70 1
7619 4 1
7619 45 1
7620 40 1
7620 52 1
7621 48 1
7622 68 1
7623 54 1
7624 49 1
7625 49 1
7626 23 1
7627 45 1
7627 60 1
7627 71 1
7628 13 1
7629 70 1
7630 70 2
7631 70 1
7632 70 1
7633 70 1
7634 45 1
7635 70 1
7636 60 1
7637 70 1
7638 43 1
7639 40 1
7640 51 1
7641 52 1
7642 30 1
7643 13 1
7644 24 1
7645 30 1
7646 32 1
7647 6 1
7647 70 1
7648 25 1
7648 68 1
7649 60 1
7650 55 1
7651 70 1
7652 70 1
7653 58 1
7653 60 1
7654 38 1
7655 13 1
7656 51 1
7657 45 1
7658 55 1
7659 13 1
7660 70 1
7661 62 1
7662 58 1
7663 45 1
7664 4 1
7665 52 1
7666 65 1
7667 45 1
7668 41 1
7669 25 1
7669 34 1
7670 23 1
7671 45 2
7673 30 1
7674 70 1
7675 70 2
7676 55 1
7677 31 1
7677 34 1
7677 68 1
7678 58 1
7679 45 1
7679 62 1
7680 70 1
7681 69 1
7682 62 1
7682 70 1
7683 60 1
7684 34 1
7685 33 1
7685 45 1
7686 25 1
7687 5 1
7688 18 1
7689 60 2
7690 58 1
7691 32 1
7692 18 1
7692 68 1
7694 46 1
7695 71 1
7696 54 1
7697 20 1
7698 20 1
7699 45 1
7700 20 1
7700 70 1
7701 43 1
7701 60 1
7702 30 1
7702 70 1
7703 34 1
7704 71 1
7705 70 1
7706 60 1
7707 52 1
7708 6 1
7709 41 1
7710 61 1
7711 70 1
7712 7 1
7713 26 1
7714 54 1
7715 25 1
7716 52 1
7717 70 1
7718 45 1
7719 70 1
7720 25 1
7721 62 1
7722 23 1
7723 30 2
7724 54 1
7725 13 1
7726 71 1
7727 52 1
7728 40 1
7729 68 1
7730 25 1
7730 30 1
7730 60 1
7731 52 1
7731 54 1
7732 43 1
7732 63 1
7733 4 1
7734 60 1
7735 48 1
7736 48 1
7737 45 1
7738 61 1
7739 21 1
7740 9 1
7740 71 1
7741 70 1
7742 62 1
7743 67 1
7744 13 1
7744 49 1
7745 65 1
7746 25 1
7747 9 1
7749 33 1
7750 13 1
7751 20 1
7751 32 1
7752 6 1
7752 12 1
7752 63 1
7753 6 1
7754 14 1
7754 70 1
7755 25 1
7756 52 1
7757 30 1
7758 48 1
7758 52 1
7759 25 1
7760 10 1
7761 54 1
7762 48 1
7762 60 1
7763 31 1
7764 71 1
7765 18 1
7766 52 1
7767 33 1
7768 70 1
7769 28 1
7769 51 1
7769 52 1
7770 54 1
7771 13 1
7772 51 1
7774 34 1
7774 70 1
7775 65 1
7776 9 1
7776 43 1
7777 68 1
7777 70 1
7778 70 1
7779 24 1
7779 71 1
7780 38 1
7781 52 1
7782 68 1
7783 45 1
7784 38 1
7785 52 1
7786 70 1
7787 70 2
7788 70 1
7789 38 1
7789 70 1
7790 70 1
7791 62 1
7792 18 1
7793 38 1
7794 51 1
7795 51 1
7796 25 1
7797 48 1
7798 62 1
7799 70 1
7800 54 1
7801 38 1
7802 4 1
7803 70 1
7804 13 1
7804 68 1
7805 62 1
7806 2 1
7807 54 1
7808 70 2
7809 71 1
7810 51 1
7811 52 1
7812 61 1
7813 70 1
7814 41 1
7814 62 1
7814 70 1
7815 4 1
7816 52 1
7817 38 1
7817 51 1
7819 38 1
7820 70 1
7821 70 1
7823 52 1
7823 70 1
7824 62 1
7825 38 1
7827 13 1
7828 38 1
7828 52 1
7828 70 1
7828 71 1
7829 18 1
7831 6 1
7831 70 1
7832 45 1
7833 43 1
7833 70 1
7834 25 1
7834 62 1
7835 70 1
7836 62 1
7837 60 1
7838 24 1
7839 39 1
7840 54 1
7841 70 1
7842 38 1
7843 45 1
7844 70 1
7845 38 1
7846 52 1
7847 71 1
7848 13 2
7849 20 1
7850 38 1
7851 70 1
7852 45 1
7852 54 1
7853 38 1
7854 9 1
7855 54 1
7856 38 1
7857 65 1
7857 70 1
7858 31 1
7859 41 1
7859 54 1
7859 60 1
7860 12 1
7861 58 1
7861 70 1
7862 38 1
7862 40 1
7863 51 1
7864 52 1
7866 23 1
7866 52 1
7867 55 1
7868 6 1
7869 38 1
7869 54 1
7870 13 1
7871 38 1
7871 48 1
7872 71 1
7873 70 2
7874 13 1
7875 44 1
7875 60 1
7876 70 1
7877 25 1
7878 70 1
7879 30 1
7879 44 1
7880 45 1
7881 31 1
7882 61 1
7883 52 1
7884 71 1
7885 70 1
7886 55 1
7887 54 1
7888 20 1
7889 70 1
7890 51 1
7891 18 1
7891 70 1
7892 44 1
7893 48 1
7894 49 1
7895 71 1
7896 70 2
7897 48 1
7898 33 1
7899 68 1
7900 48 1
7900 57 1
7901 52 1
7902 62 1
7903 71 1
7904 17 1
7904 49 1
7905 2 1
7905 62 1
7906 70 1
7907 4 1
7907 52 2
7908 52 1
7909 45 1
7910 13 1
7911 58 1
7912 54 1
7913 4 1
7914 45 1
7914 46 1
7915 10 1
7916 33 1
7917 62 1
7918 70 1
7919 13 1
7920 54 1
7921 48 1
7922 60 1
7923 71 1
7924 6 1
7924 10 1
7924 55 1
7925 4 1
7926 20 1
7927 9 1
7928 70 1
7929 73 1
7930 68 1
7930 70 1
7931 70 1
7932 38 1
7933 4 1
7934 30 1
7935 34 1
7936 72 1
7937 30 1
7938 61 1
7939 51 1
7939 52 1
7940 70 1
7941 38 1
7942 71 1
7943 71 1
7944 32 1
7944 62 1
7945 51 2
7946 14 1
7946 38 1
7946 52 1
7947 62 1
7948 54 1
7949 71 1
7950 51 1
7950 70 1
7951 31 1
7952 68 1
7953 20 1
7954 61 1
7955 71 1
7956 70 1
7957 48 1
7958 70 1
7959 70 1
7960 60 1
7961 70 2
7962 51 1
7962 54 1
7963 70 1
7964 60 1
7965 58 1
7966 71 1
7967 6 1
7967 9 1
7968 52 1
7969 48 1
7970 30 1
7971 54 1
7972 60 1
7973 13 1
7974 70 1
7975 4 1
7975 70 1
7976 51 1
7977 71 1
7978 54 1
7979 51 1
7980 70 1
7981 31 1
7982 70 1
7983 49 1
7984 70 1
7985 70 1
7986 51 1
7987 32 1
7988 4 1
7988 63 1
7989 45 1
7990 52 1
7990 70 1
7991 12 1
7991 52 1
7991 62 1
7992 38 1
7993 38 1
7995 6 1
7996 24 1
7997 32 1
7998 45 1
7999 48 1
8000 45 1
8001 14 1
8001 45 1
8002 54 1
8003 70 1
8004 52 1
8005 62 1
8006 52 1
8007 41 1
8007 51 1
8008 38 1
8008 70 1
8009 44 1
8010 48 1
8011 38 1
8012 18 1
8013 13 1
8013 43 1
8013 51 1
8013 52 4
8013 62 1
8013 71 1
8014 18 1
8015 32 1
8016 71 1
8017 70 1
8018 70 1
8019 18 1
8020 70 1
8021 70 1
8022 70 1
8023 41 1
8023 62 1
8023 65 1
8024 68 1
8025 65 1
8026 51 1
8027 59 1
8028 68 1
8029 16 1
8030 30 1
8030 52 1
8031 25 1
8031 38 1
8031 62 2
8031 63 1
8032 62 1
8032 71 1
8033 54 1
8034 33 1
8035 33 1
8036 52 1
8037 52 1
8038 60 1
8039 25 1
8040 25 1
8041 70 1
8042 70 1
8043 38 1
8043 65 1
8044 68 1
8045 71 1
8046 68 1
8047 70 1
8048 65 1
8049 51 1
8050 25 1
8052 70 1
8053 38 1
8054 30 1
8055 52 1
8056 70 1
8057 20 1
8058 45 1
8059 51 1
8060 45 1
8060 70 1
8061 70 1
8063 52 1
8064 60 1
8065 38 1
8066 13 1
8067 45 1
8068 52 1
8069 54 1
8070 12 1
8070 71 1
8071 10 1
8072 4 1
8073 50 1
8074 70 1
8075 55 1
8076 13 1
8077 38 1
8078 65 1
8079 13 1
8080 12 1
8080 70 1
8081 20 1
8082 54 1
8082 65 1
8082 70 1
8083 51 1
8084 51 1
8084 71 1
8085 62 1
8086 38 1
8086 48 1
8086 52 1
8086 61 1
8086 68 1
8086 70 2
8087 52 1
8089 70 1
8090 5 1
8091 70 1
8092 58 1
8093 38 1
8094 31 1
8094 70 3
8095 30 1
8096 60 1
8096 70 1
8097 4 1
8098 49 1
8099 68 1
8100 62 1
8100 70 1
8101 54 1
8102 52 1
8103 70 1
8104 54 1
8105 58 1
8106 45 1
8107 2 1
8107 52 1
8108 62 1
8109 25 1
8110 71 1
8111 45 1
8112 38 1
8112 71 1
8113 70 1
8114 34 1
8114 55 1
8114 61 1
8115 70 1
8116 60 1
8117 52 2
8118 13 1
8118 71 1
8119 51 1
8120 59 1
8121 47 1
8121 51 1
8122 38 1
8123 58 1
8124 14 1
8124 60 1
8125 60 1
8126 45 2
8127 52 1
8128 9 1
8130 5 1
8131 45 2
8132 20 1
8133 13 1
8134 45 1
8135 34 1
8136 68 1
8137 13 1
8138 55 1
8139 48 1
8140 33 1
8142 38 1
8143 38 1
8144 20 1
8145 51 1
8146 62 1
8147 71 1
8148 54 1
8149 70 1
8150 51 1
8151 70 1
8152 65 1
8153 70 1
8154 25 1
8155 51 1
8156 18 1
8157 54 1
8158 63 1
8159 30 1
8160 40 1
8160 48 1
8160 52 1
8160 62 1
8161 51 1
8161 70 1
8162 52 1
8163 4 1
8164 54 2
8165 38 1
8166 32 1
8167 62 1
8168 55 1
8169 6 2
8169 62 1
8170 48 2
8171 4 1
8172 70 1
8173 48 1
8174 45 1
8175 18 1
8176 71 1
8177 71 1
8178 5 1
8179 70 2
8180 45 1
8180 62 1
8181 70 1
8182 4 1
8182 20 1
8182 70 1
8183 25 1
8185 24 1
8186 20 1
8187 4 1
8188 59 1
8189 33 1
8190 61 1
8192 71 1
8193 58 1
8194 45 1
8194 52 1
8194 60 2
8195 6 1
8196 70 1
8197 20 1
8198 71 1
8199 44 1
8200 54 1
8201 62 1
8202 61 1
8202 62 1
8203 12 1
8203 43 1
8203 54 1
8203 70 1
8204 61 1
8205 24 1
8206 48 1
8207 62 1
8208 52 1
8209 55 1
8210 61 1
8211 65 1
8212 62 1
8213 70 1
8214 70 1
8215 40 1
8216 38 1
8216 52 1
8217 18 1
8218 51 1
8218 52 1
8219 54 1
8220 38 1
8221 48 1
8222 45 1
8223 61 1
8224 52 1
8225 52 1
8225 70 1
8226 3 1
8227 4 1
8228 68 1
8229 62 1
8230 6 1
8230 13 1
8230 51 1
8231 68 1
8232 68 1
8233 58 2
8234 51 1
8235 45 1
8237 62 1
8238 71 1
8239 30 1
8240 70 1
8241 33 1
8242 70 1
8243 54 1
8244 30 1
8244 64 1
8245 60 1
8246 59 1
8247 18 1
8247 48 1
8248 54 1
8249 70 1
8249 71 1
8250 58 1
8251 24 1
8252 51 1
8253 61 1
8254 17 1
8254 45 1
8255 62 1
8257 38 1
8258 43 1
8258 70 2
8259 45 1
8260 52 1
8261 61 1
8262 38 1
8263 4 1
8265 54 1
8265 70 2
8266 12 1
8267 52 1
8267 70 1
8268 70 1
8269 33 1
8270 70 1
8271 14 1
8272 54 2
8273 70 1
8274 48 1
8274 52 1
8275 12 1
8275 51 1
8276 52 1
8277 70 1
8278 55 1
8280 70 1
8281 51 1
8282 34 1
8283 71 1
8284 32 1
8285 48 1
8285 49 1
8286 38 1
8286 70 1
8287 4 1
8287 10 2
8287 14 1
8287 18 1
8287 30 2
8287 32 1
8287 38 2
8287 41 1
8287 43 2
8287 45 2
8287 51 1
8287 52 2
8287 54 2
8287 59 1
8287 60 1
8287 62 2
8287 63 1
8287 68 1
8287 70 8
8287 71 2
8288 70 1
8289 52 1
8289 60 1
8290 18 1
8290 58 1
8291 52 1
8292 52 1
8293 47 1
8294 52 1
8295 63 1
8296 45 1
8297 43 1
8298 55 1
8299 51 1
8300 17 1
8301 9 1
8302 70 1
8303 52 1
8304 43 1
8305 70 1
8306 51 1
8308 60 2
8309 62 1
8310 38 1
8311 71 1
8312 70 1
8313 4 1
8314 12 1
8315 9 1
8316 71 1
8317 70 1
8318 9 1
8319 55 1
8320 32 1
8321 33 1
8322 34 1
8322 54 1
8324 51 1
8324 62 1
8325 70 1
8326 54 1
8327 32 1
8327 55 1
8328 30 1
8329 62 1
8330 70 1
8331 43 1
8331 70 1
8332 25 1
8333 25 1
8334 70 2
8335 54 1
8335 62 1
8337 62 1
8338 70 1
8339 33 1
8340 61 1
8341 58 1
8342 28 1
8342 37 1
8342 38 1
8343 4 1
8344 43 1
8344 70 1
8345 62 1
8346 62 1
8347 2 1
8348 60 1
8349 70 1
8350 52 1
8351 34 1
8352 27 1
8353 70 1
8354 4 1
8355 52 1
8356 65 1
8357 13 1
8357 25 1
8358 70 1
8359 70 1
8360 48 1
8360 52 1
8361 34 1
8361 52 1
8361 71 1
8362 62 1
8363 14 1
8364 21 1
8365 49 1
8366 45 1
8366 70 1
8367 18 1
8368 54 1
8369 59 1
8370 49 1
8371 26 1
8372 40 1
8372 70 1
8373 68 1
8374 25 1
8375 9 1
8376 43 1
8377 52 1
8378 2 1
8378 51 1
8379 45 1
8379 48 1
8379 68 1
8380 68 1
8381 13 1
8382 57 1
8383 70 1
8384 49 1
8385 20 1
8385 71 1
8386 62 1
8387 51 2
8388 51 1
8388 70 1
8389 60 1
8389 70 1
8390 70 1
8391 45 1
8392 45 1
8393 20 1
8393 25 1
8394 70 1
8395 70 1
8396 32 1
8397 38 1
8397 52 1
8398 14 1
8399 63 1
8400 68 1
8401 61 1
8402 12 1
8403 38 1
8404 70 1
8405 54 1
8406 25 1
8407 6 1
8407 12 2
8407 20 2
8407 39 1
8407 59 1
8407 62 1
8408 13 1
8409 60 1
8410 51 1
8411 71 1
8412 70 1
8413 45 1
8414 54 1
8415 52 1
8416 26 1
8416 54 1
8417 24 1
8417 61 1
8418 70 1
8419 45 1
8420 12 1
8421 31 1
8422 13 1
8423 33 1
8424 38 1
8425 57 1
8425 58 1
8426 51 1
8426 70 1
8427 33 1
8428 45 1
8429 38 1
8429 55 1
8430 71 1
8431 38 1
8432 20 1
8432 70 1
8433 2 1
8434 52 1
8435 1 1
8436 54 1
8437 17 1
8438 54 3
8439 48 1
8440 25 1
8441 12 1
8442 70 1
8443 70 1
8444 52 1
8445 70 1
8446 70 1
8447 62 1
8447 68 1
8447 70 1
8448 68 1
8449 62 1
8450 49 1
8451 58 1
8452 48 1
8452 54 1
8453 70 1
8454 51 1
8455 4 1
8455 45 1
8456 5 1
8457 45 1
8458 70 1
8459 25 1
8459 58 1
8459 70 1
8460 62 1
8461 38 1
8462 70 1
8463 24 1
8463 62 1
8463 70 2
8464 24 1
8465 70 1
8467 39 1
8468 70 1
8469 45 1
8469 71 1
8471 20 1
8472 34 1
8472 63 1
8473 49 1
8473 52 1
8474 58 1
8475 6 1
8476 61 1
8477 60 1
8477 70 1
8478 12 1
8479 20 1
8479 25 1
8479 49 1
8480 71 1
8481 52 1
8482 68 2
8483 38 1
8484 38 1
8485 54 1
8486 24 1
8487 54 1
8488 51 1
8488 63 1
8489 25 2
8490 43 1
8490 55 1
8490 70 1
8491 18 1
8492 70 1
8493 68 1
8493 70 1
8494 70 4
8495 54 1
8496 13 1
8496 24 1
8497 70 1
8498 54 1
8498 71 1
8499 12 1
8500 45 1
8501 31 1
8502 54 1
8503 62 1
8504 52 1
8504 62 1
8505 54 1
8506 61 1
8507 18 1
8508 62 1
8509 54 1
8510 70 1
8512 70 1
8513 20 1
8514 20 1
8515 9 1
8515 52 1
8516 38 1
8517 45 1
8517 54 1
8518 48 1
8519 62 1
8520 18 1
8521 6 1
8522 70 1
8523 70 1
8524 5 1
8525 62 1
8526 33 1
8527 32 1
8528 48 1
8529 52 1
8530 62 1
8530 71 1
8531 41 1
8532 48 1
8532 51 1
8533 70 1
8534 38 1
8535 9 1
8536 24 1
8537 54 1
8538 70 1
8539 25 1
8539 71 1
8540 54 1
8541 9 1
8542 59 1
8543 52 1
8544 60 1
8545 70 1
8546 68 1
8547 33 1
8547 38 2
8548 32 1
8549 2 1
8550 45 1
8551 70 1
8552 10 1
8552 70 1
8553 58 1
8554 54 1
8555 54 1
8556 34 1
8556 51 1
8557 60 1
8558 9 1
8559 70 1
8560 51 1
8560 61 1
8561 54 1
8562 62 1
8563 18 1
8564 54 1
8565 62 1
8566 52 1
8567 41 1
8567 70 1
8569 48 1
8570 70 1
8571 71 1
8572 58 1
8573 70 1
8574 20 1
8574 70 1
8575 51 1
8576 45 1
8577 65 3
8578 24 1
8579 4 1
8580 34 1
8581 44 1
8582 45 1
8583 45 1
8583 60 1
8584 51 1
8584 65 1
8585 4 2
8585 48 1
8585 52 1
8585 54 1
8585 68 1
8585 70 1
8585 71 3
8586 13 1
8587 51 1
8587 52 2
8587 70 1
8588 20 1
8589 20 1
8589 54 1
8590 61 1
8591 70 1
8592 25 1
8593 20 1
8593 59 1
8594 4 1
8594 70 1
8595 58 1
8596 40 1
8597 58 1
8598 54 1
8599 33 1
8599 49 1
8600 52 1
8601 48 1
8602 54 1
8603 52 1
8604 43 1
8604 70 1
8605 12 1
8605 52 1
8605 54 1
8605 71 1
8606 52 1
8607 70 1
8608 25 1
8609 25 2
8609 70 1
8610 68 1
8610 70 1
8611 45 2
8612 70 1
8613 70 1
8614 12 1
8615 6 1
8616 38 1
8617 31 1
8617 61 1
8617 71 1
8618 38 1
8619 45 1
8620 30 1
8622 70 1
8623 13 1
8623 71 1
8624 6 1
8625 70 1
8626 13 1
8626 31 1
8626 49 1
8626 70 1
8627 54 1
8628 59 1
8629 70 1
8630 70 1
8631 38 1
8632 48 1
8632 70 1
8633 20 1
8635 25 1
8635 52 1
8636 38 1
8637 31 1
8638 70 1
8638 71 1
8639 38 1
8640 52 1
8641 52 1
8642 71 1
8643 4 1
8643 70 1
8644 70 1
8645 62 1
8646 62 1
8647 54 1
8648 62 1
8649 51 1
8650 52 1
8651 70 1
8652 71 1
8653 70 1
8654 71 1
8655 70 1
8656 70 1
8657 70 1
8658 70 1
8659 62 1
8661 51 1
8661 61 2
8662 38 1
8662 70 1
8663 52 1
8664 71 1
8665 68 1
8666 61 1
8666 70 2
8667 32 1
8668 61 1
8669 6 1
8670 54 1
8671 38 1
8672 9 1
8673 52 1
8674 20 1
8675 25 1
8675 65 1
8676 13 1
8677 45 1
8678 45 1
8679 31 1
8679 52 1
8680 49 1
8681 59 1
8682 52 1
8683 51 1
8684 70 1
8685 4 1
8686 58 2
8686 62 1
8687 62 1
8688 54 1
8688 60 1
8689 70 1
8690 71 1
8691 70 1
8692 70 1
8693 21 1
8694 34 1
8695 4 1
8695 62 1
8696 71 1
8697 30 1
8698 52 1
8699 58 1
8700 52 1
8700 71 1
8701 30 1
8701 70 1
8703 69 1
8704 14 1
8705 32 1
8706 45 1
8707 62 1
8708 38 1
8708 71 1
8709 1 1
8710 9 1
8710 54 1
8711 62 1
8712 71 1
8713 70 1
8714 30 1
8715 51 1
8716 70 1
8717 70 1
8718 70 1
8719 71 1
8720 18 1
8721 51 1
8722 58 1
8723 70 2
8724 52 1
8725 13 1
8726 71 1
8727 54 1
8728 70 1
8729 52 1
8729 71 1
8730 51 1
8731 71 1
8732 13 1
8732 28 1
8732 48 1
8732 62 1
8733 65 1
8734 20 1
8734 33 2
8734 52 1
8735 68 1
8736 51 1
8737 68 1
8738 12 1
8738 13 1
8738 25 1
8738 30 1
8738 31 1
8738 34 1
8738 39 1
8738 51 1
8738 54 1
8738 62 2
8738 65 1
8738 68 1
8738 71 2
8739 18 1
8739 52 1
8740 48 1
8741 9 1
8741 71 1
8742 32 1
8743 13 1
8743 44 2
8744 51 1
8745 54 1
8746 61 1
8747 70 1
8748 4 1
8749 4 1
8750 62 1
8751 63 1
8751 70 1
8752 70 1
8753 51 1
8753 61 1
8754 70 1
8755 70 1
8756 63 1
8757 54 1
8758 52 1
8759 52 1
8760 70 1
8761 38 1
8761 54 1
8762 49 1
8763 62 1
8764 9 1
8765 51 1
8766 51 1
8767 48 1
8768 61 1
8769 55 1
8770 62 1
8771 45 1
8772 41 1
8773 54 1
8774 41 1
8774 45 1
8774 48 1
8774 52 1
8774 62 1
8774 70 1
8775 52 1
8776 62 1
8777 50 1
8778 54 1
8778 67 1
8779 52 1
8780 60 1
8781 24 1
8782 60 1
8783 54 1
8784 43 1
8785 2 1
8786 63 1
8787 52 1
8788 38 1
8789 71 1
8790 58 1
8792 51 1
8793 70 1
8794 70 1
8795 71 1
8796 52 1
8797 43 1
8798 60 1
8799 65 1
8800 52 1
8801 54 1
8802 62 1
8803 65 1
8804 38 1
8805 71 1
8806 32 1
8807 62 1
8808 55 1
8809 63 1
8811 65 1
8812 14 1
8813 62 1
8814 70 1
8815 45 1
8815 70 1
8816 4 1
8817 61 1
8818 71 1
8819 17 1
8820 51 1
8821 4 1
8822 52 1
8823 71 1
8824 62 1
8825 54 1
8826 52 2
8827 55 1
8828 61 1
8829 70 1
8830 4 1
8831 70 1
8832 70 1
8833 25 1
8834 68 1
8835 45 1
8836 38 1
8837 71 1
8838 70 1
8839 62 2
8840 40 1
8841 31 1
8842 4 1
8842 71 1
8843 5 1
8843 40 2
8843 70 1
8844 60 1
8844 71 1
8845 9 1
8846 70 1
8847 51 1
8848 70 1
8849 70 2
8851 30 1
8852 58 1
8852 70 1
8853 54 1
8854 33 1
8855 45 1
8856 10 1
8857 52 1
8858 62 1
8859 52 1
8859 70 1
8860 70 1
8861 18 1
8862 70 1
8863 52 1
8864 18 1
8864 71 1
8865 12 1
8866 62 1
8867 62 1
8868 25 1
8868 71 1
8869 52 1
8869 70 1
8870 48 1
8871 59 1
8872 5 1
8873 49 1
8874 70 1
8875 52 1
8876 50 1
8877 45 1
8878 70 1
8879 62 1
8880 12 1
8881 48 1
8881 51 1
8881 68 1
8882 58 1
8883 70 1
8884 46 1
8885 71 1
8886 52 1
8887 12 1
8887 25 1
8888 32 1
8889 32 1
8890 40 1
8891 68 1
8892 23 1
8893 38 1
8894 61 1
8895 52 1
8895 70 1
8896 6 1
8897 62 1
8898 54 1
8899 52 1
8900 34 1
8901 48 1
8902 38 1
8903 9 1
8903 52 1
8903 68 1
8904 70 1
8905 62 1
8906 10 1
8906 52 1
8907 70 1
8908 70 1
8909 38 1
8909 51 1
8909 68 1
8910 38 1
8911 4 1
8912 61 1
8913 71 1
8914 52 1
8914 54 1
8915 23 1
8916 13 1
8916 34 1
8916 71 1
8917 71 1
8918 70 1
8919 30 1
8920 70 1
8921 55 1
8922 45 1
8923 18 1
8924 20 1
8925 54 1
8926 9 1
8927 70 1
8928 70 1
8929 38 1
8930 38 2
8931 51 2
8931 62 1
8932 2 1
8933 54 1
8934 38 1
8935 13 1
8935 30 1
8935 46 1
8936 70 1
8937 38 1
8937 54 1
8938 70 1
8939 70 1
8940 70 1
8941 70 1
8942 48 1
8943 61 1
8943 70 1
8944 54 1
8944 70 1
8945 70 1
8946 41 1
8947 60 1
8948 62 1
8948 70 2
8949 38 1
8949 40 1
8950 38 1
8951 4 1
8952 58 1
8952 70 1
8953 60 1
8954 4 1
8955 51 1
8956 70 1
8958 25 1
8959 68 1
8960 62 1
8961 24 1
8961 70 2
8963 52 1
8964 20 1
8965 20 1
8966 70 1
8967 60 1
8968 49 1
8969 14 1
8969 71 1
8970 38 1
8971 57 1
8972 41 1
8973 70 1
8974 43 1
8975 21 1
8976 60 1
8977 25 1
8978 70 1
8979 62 1
8979 71 1
8980 71 1
8981 45 1
8982 62 1
8984 68 1
8985 13 2
8986 70 1
8987 54 1
8988 65 1
8988 70 1
8988 71 1
8989 57 1
8990 60 1
8991 54 1
8992 23 1
8993 62 1
8994 62 1
8995 40 1
8995 71 1
8996 70 1
8997 52 1
8997 71 1
8998 55 1
8998 68 1
8999 58 1
9000 31 1
9000 52 1
9001 12 1
9002 49 1
9003 60 1
9004 55 1
9004 70 2
9005 68 1
9006 70 1
9007 34 1
9008 4 2
9009 71 1
9010 14 1
9011 13 1
9011 70 1
9012 70 1
9013 43 1
9013 62 1
9013 70 1
9014 70 1
9015 43 1
9016 60 1
9017 43 2
9018 70 1
9020 61 1
9021 52 1
9022 13 1
9023 70 1
9024 18 1
9025 43 1
9026 30 1
9026 40 1
9026 58 1
9027 70 1
9027 71 1
9028 71 1
9029 68 1
9030 45 1
9030 62 1
9031 43 1
9032 70 1
9033 62 1
9034 62 1
9035 9 1
9036 18 1
9037 45 1
9038 55 1
9038 65 1
9039 45 1
9039 62 1
9040 51 1
9041 2 10
9041 4 1
9041 6 1
9041 17 2
9041 25 3
9041 26 2
9041 27 1
9041 30 5
9041 31 1
9041 32 4
9041 33 1
9041 39 1
9041 43 2
9041 45 1
9041 46 1
9041 49 1
9041 51 3
9041 52 5
9041 54 2
9041 58 27
9041 60 1
9041 61 16
9041 62 23
9041 68 2
9041 70 2
9041 71 14
9042 31 1
9042 61 1
9043 71 1
9044 6 1
9045 63 1
9046 52 1
9047 62 1
9048 68 1
9048 71 1
9049 26 1
9050 54 1
9051 45 1
9052 34 1
9053 71 1
9054 70 1
9055 55 1
9056 39 1
9057 44 1
9058 52 1
9059 4 1
9060 48 1
9061 70 1
9062 20 1
9063 38 1
9064 70 1
9065 60 1
9066 62 1
9067 70 1
9068 65 1
9069 18 1
9070 70 1
9071 70 1
9072 2 1
9073 6 1
9074 6 1
9075 4 1
9075 72 1
9076 70 1
9077 6 1
9077 52 1
9078 70 1
9079 70 1
9080 4 1
9081 71 1
9082 71 1
9083 6 1
9083 58 1
9084 14 1
9084 45 2
9085 54 1
9086 6 1
9087 18 1
9088 10 1
9089 38 2
9089 52 1
9090 38 1
9091 32 1
9092 13 1
9093 4 1
9094 46 1
9095 62 1
9096 55 1
9097 61 1
9098 20 1
9098 71 1
9099 13 1
9100 54 1
9100 70 1
9101 2 1
9102 62 1
9103 40 1
9104 71 1
9105 20 1
9105 70 1
9107 70 1
9108 54 1
9109 52 1
9110 10 1
9110 70 2
9111 54 1
9112 30 1
9112 62 1
9113 52 1
9114 61 1
9115 20 1
9115 43 1
9116 38 2
9116 62 1
9117 48 1
9118 18 1
9119 70 1
9120 34 1
9121 71 1
9122 31 1
9123 5 1
9124 9 1
9125 63 1
9126 71 1
9127 71 1
9128 18 1
9129 71 1
9130 2 1
9131 51 1
9132 71 1
9133 45 1
9134 70 1
9134 71 1
9135 52 1
9136 62 1
9137 23 1
9138 60 1
9139 13 1
9140 70 1
9141 58 1
9142 68 1
9143 70 1
9144 62 1
9145 49 1
9146 70 1
9147 34 1
9148 49 1
9149 40 1
9150 62 1
9151 55 1
9152 70 1
9153 4 1
9154 70 1
9155 45 1
9156 70 1
9157 4 1
9157 5 1
9157 25 1
9157 32 1
9157 34 1
9157 43 1
9157 51 1
9157 52 5
9157 58 1
9157 61 1
9158 7 1
9159 20 1
9160 54 1
9161 52 1
9162 20 1
9162 71 1
9163 48 1
9164 52 1
9165 47 1
9166 12 1
9166 48 1
9167 17 1
9168 33 1
9169 44 1
9170 45 1
9170 70 1
9171 70 1
9172 54 1
9173 52 1
9174 62 1
9175 70 1
9176 45 1
9177 30 1
9178 59 1
9179 70 1
9180 30 1
9180 62 1
9181 43 1
9181 71 1
9182 70 1
9183 70 1
9184 58 1
9185 48 1
9185 54 1
9185 70 1
9186 9 1
9187 52 1
9188 52 1
9189 30 1
9190 23 1
9191 70 1
9192 30 1
9192 58 1
9193 52 1
9194 52 1
9195 51 1
9196 52 1
9197 62 1
9198 68 1
9199 52 1
9200 71 1
9201 43 1
9202 70 1
9203 38 1
9204 54 1
9205 43 1
9206 38 1
9207 14 1
9208 65 1
9209 70 1
9210 43 1
9211 6 1
9212 46 1
9213 60 1
9214 71 1
9215 52 1
9216 45 1
9217 52 1
9218 13 1
9219 51 1
9219 70 1
9220 43 1
9221 70 1
9222 14 1
9223 68 1
9224 59 1
9225 52 1
9226 62 1
9227 51 1
9228 70 1
9229 24 1
9230 25 1
9231 18 1
9232 70 1
9233 43 1
9234 30 1
9235 52 1
9235 70 1
9236 62 1
9237 54 1
9238 71 1
9239 52 1
9240 20 1
9241 70 1
9242 54 1
9243 47 1
9244 61 1
9244 70 1
9245 4 1
9246 54 1
9247 51 1
9248 43 1
9249 30 1
9250 18 1
9252 70 1
9253 71 1
9254 70 1
9255 70 1
9256 70 1
9257 4 1
9258 43 1
9259 13 1
9260 52 1
9261 52 1
9262 52 1
9263 70 1
9264 54 1
9265 48 1
9265 70 1
9266 61 2
9267 30 1
9268 70 1
9269 62 1
9270 4 1
9271 52 1
9272 70 1
9273 20 1
9273 52 1
9274 20 1
9275 31 1
9275 32 1
9275 38 1
9276 6 1
9277 25 1
9278 54 1
9278 70 1
9279 70 1
9280 30 1
9281 52 1
9282 71 1
9283 62 1
9284 4 1
9285 52 1
9286 48 1
9287 58 1
9287 70 2
9288 43 1
9289 30 1
9290 68 1
9291 21 1
9291 45 1
9292 62 1
9293 70 1
9294 62 1
9295 62 1
9296 52 1
9297 4 1
9298 45 1
9299 55 1
9300 25 1
9301 70 1
9303 62 1
9304 62 1
9305 52 1
9306 4 1
9307 6 1
9308 70 1
9309 62 1
9310 59 1
9311 70 1
9312 31 1
9313 38 1
9314 30 1
9315 54 1
9316 52 1
9317 65 1
9318 58 1
9319 24 2
9319 33 1
9319 52 1
9320 20 1
9321 60 1
9322 52 1
9323 71 1
9324 71 1
9325 62 1
9326 70 2
9326 71 1
9327 45 1
9328 12 1
9329 51 1
9330 51 1
9331 52 1
9332 54 1
9333 33 1
9334 7 1
9335 62 1
9336 70 1
9337 25 1
9338 52 1
9339 38 1
9340 24 1
9341 4 1
9342 55 1
9343 71 1
9344 70 1
9345 24 1
9346 71 1
9347 20 1
9348 62 1
9349 45 1
9349 70 1
9350 9 2
9351 70 1
9352 2 1
9353 6 1
9354 70 1
9354 71 1
9355 55 1
9356 34 1
9357 71 1
9358 52 1
9359 20 1
9359 70 1
9360 4 1
9362 70 1
9363 54 1
9364 70 1
9365 2 1
9366 60 1
9366 70 1
9367 70 1
9368 13 1
9369 40 1
9370 68 1
9371 54 2
9372 54 1
9373 58 1
9374 7 1
9375 65 1
9376 54 1
9377 6 1
9377 13 1
9378 52 1
9378 62 1
9379 70 1
9380 70 1
9381 45 1
9381 62 1
9382 20 1
9383 68 1
9384 70 1
9385 70 1
9386 51 1
9387 52 1
9388 62 1
9389 45 1
9390 68 1
9391 70 1
9392 25 1
9393 18 1
9394 38 1
9395 12 1
9396 70 1
9397 70 1
9398 38 1
9399 25 1
9401 62 1
9402 18 1
9402 51 1
9403 52 1
9404 9 1
9405 4 1
9406 51 1
9407 45 1
9408 62 1
9409 39 1
9410 61 1
9411 24 1
9411 70 1
9412 4 1
9413 38 1
9414 62 1
9415 71 1
9416 28 1
9416 51 1
9417 45 1
9418 45 1
9419 62 1
9420 40 1
9421 20 1
9422 52 1
9423 55 1
9423 70 1
9424 38 1
9424 45 1
9425 45 1
9425 52 1
9426 45 1
9427 70 1
9428 33 1
9429 70 1
9430 35 1
9431 5 1
9431 43 1
9432 25 1
9433 52 1
9434 34 2
9434 70 1
9435 54 1
9435 71 1
9436 40 1
9436 41 1
9437 30 1
9438 59 1
9439 41 1
9440 45 1
9441 60 1
9442 52 1
9443 5 1
9444 51 1
9444 58 1
9445 70 1
9446 4 1
9446 52 1
9447 25 1
9448 54 1
9449 70 1
9450 62 1
9451 70 1
9452 65 1
9453 38 1
9454 30 1
9454 51 1
9455 20 1
9455 49 1
9456 34 1
9457 48 1
9458 70 1
9459 70 1
9460 70 1
9461 38 1
9462 34 1
9463 59 1
9464 25 1
9464 71 1
9465 38 1
9465 70 1
9466 6 1
9467 6 1
9468 25 1
9468 52 1
9469 52 1
9469 60 1
9470 38 1
9471 70 3
9472 25 1
9473 63 1
9474 60 1
9475 24 1
9476 48 1
9477 52 1
9478 62 1
9479 70 1
9480 13 1
9481 37 1
9482 60 1
9483 52 1
9484 52 1
9485 38 1
9486 9 1
9487 48 1
9487 70 1
9488 20 1
9489 58 1
9490 30 1
9490 38 1
9490 43 1
9490 63 1
9491 38 1
9492 51 1
9493 62 1
9494 43 1
9494 45 1
9494 54 3
9494 68 1
9495 59 1
9496 54 1
9497 9 1
9498 4 1
9499 12 1
9499 13 1
9499 45 1
9499 62 1
9500 4 1
9501 38 1
9503 19 1
9504 14 1
9504 45 1
9505 65 1
9506 54 1
9507 9 1
9508 51 1
9509 70 1
9510 58 1
9511 60 1
9513 13 1
9514 52 1
9515 2 1
9515 70 1
9516 62 1
9518 40 1
9518 68 1
9519 34 1
9520 70 1
9521 20 1
9521 51 1
9522 34 1
9523 52 1
9524 25 1
9524 71 1
9525 13 1
9526 52 1
9527 70 1
9528 45 1
9529 55 1
9530 63 1
9531 54 1
9532 13 1
9532 54 1
9532 70 2
9533 32 1
9533 38 1
9534 70 1
9535 62 1
9536 43 1
9537 52 1
9538 62 1
9539 31 1
9539 70 1
9540 20 1
9541 62 1
9542 30 1
9543 45 1
9544 4 1
9545 59 1
9545 71 1
9546 58 1
9547 38 1
9547 70 1
9548 9 1
9548 13 1
9548 14 1
9549 40 1
9549 62 1
9550 54 1
9551 38 1
9552 52 1
9552 59 1
9553 70 1
9554 71 1
9555 48 1
9556 70 1
9557 45 1
9558 4 1
9559 48 1
9560 70 1
9561 40 1
9562 46 1
9563 70 1
9564 70 1
9565 45 1
9566 70 1
9567 45 1
9568 61 1
9569 25 1
9570 4 1
9571 54 1
9572 32 1
9573 49 1
9574 44 1
9574 63 1
9575 62 1
9576 52 1
9577 12 1
9577 45 1
9577 54 1
9578 59 1
9579 32 1
9579 44 1
9579 63 1
9580 25 1
9581 70 1
9582 70 1
9583 9 1
9584 70 1
9585 25 1
9586 70 1
9587 52 1
9588 70 1
9589 52 1
9590 54 1
9591 30 1
9591 38 1
9591 62 1
9592 18 1
9594 70 1
9595 62 1
9596 55 1
9597 68 1
9598 59 1
9599 6 1
9600 45 2
9600 55 1
9601 45 1
9602 70 1
9603 70 1
9604 54 1
9605 54 1
9606 33 1
9607 12 1
9608 51 1
9609 38 1
9609 52 1
9610 55 1
9611 25 1
9612 51 1
9613 45 1
9614 60 1
9615 62 1
9616 71 1
9617 49 1
9618 57 1
9620 51 1
9621 52 1
9622 60 1
9623 9 1
9623 70 1
9624 58 1
9625 51 1
9626 51 1
9627 33 1
9628 30 1
9629 30 1
9630 70 1
9631 9 1
9632 24 1
9633 38 1
9633 70 1
9634 70 1
9635 55 1
9636 49 1
9636 51 1
9637 70 1
9638 13 1
9638 63 1
9639 38 1
9640 45 1
9641 45 1
9641 51 1
9641 70 1
9642 52 1
9642 59 1
9643 43 1
9644 23 1
9645 58 1
9646 71 2
9647 17 1
9648 6 1
9649 4 1
9649 30 1
9650 44 1
9651 51 1
9652 58 1
9653 46 1
9654 71 1
9655 54 1
9655 70 1
9656 4 2
9656 9 1
9656 17 2
9656 20 1
9656 30 9
9656 31 6
9656 32 2
9656 40 2
9656 43 1
9656 45 1
9656 48 1
9656 51 1
9656 52 1
9656 55 3
9656 58 1
9656 60 1
9656 61 1
9656 62 5
9656 65 2
9656 67 1
9656 68 3
9656 70 2
9656 71 3
9657 70 1
9658 38 1
9659 61 1
9661 38 1
9661 71 1
9662 70 1
9663 70 1
9664 10 1
9664 45 1
9664 61 1
9665 45 1
9666 10 1
9667 71 1
9668 4 1
9668 60 1
9669 65 1
9670 38 1
9671 48 1
9671 68 1
9672 62 1
9673 58 1
9674 44 1
9674 45 1
9674 51 1
9674 70 1
9674 71 1
9675 45 1
9675 62 1
9676 46 1
9676 70 1
9676 71 1
9677 45 1
9678 12 1
9679 34 1
9680 12 1
9681 70 1
9682 25 1
9682 43 1
9683 58 1
9684 4 1
9684 30 1
9684 38 1
9685 54 1
9686 52 1
9687 54 1
9688 62 1
9689 51 1
9689 52 1
9690 24 1
9691 24 1
9692 70 1
9693 20 1
9694 45 1
9695 20 1
9695 40 1
9696 44 1
9697 71 1
9698 54 1
9699 52 1
9699 60 1
9700 20 1
9701 45 1
9702 38 1
9703 34 1
9704 4 1
9704 30 1
9705 30 1
9706 54 1
9707 13 1
9708 24 1
9708 54 1
9709 70 1
9710 62 1
9711 33 1
9711 38 1
9712 70 2
9713 71 1
9714 54 1
9715 62 1
9716 30 1
9717 70 1
9718 9 1
9719 20 1
9719 38 1
9720 9 1
9720 65 1
9720 72 1
9721 58 1
9721 71 1
9722 70 1
9723 34 1
9724 70 2
9725 59 1
9725 70 1
9726 13 1
9726 70 1
9727 71 1
9728 23 1
9729 4 1
9729 23 1
9729 40 1
9730 62 1
9731 68 1
9731 70 3
9732 20 1
9732 63 1
9732 70 2
9733 38 1
9733 48 1
9734 24 1
9735 70 1
9736 48 1
9737 65 1
9738 68 1
9739 62 1
9740 54 1
9741 70 1
9742 52 1
9743 54 1
9745 38 1
9745 70 1
9746 38 1
9747 20 1
9747 30 1
9747 51 1
9747 70 2
9748 70 1
9749 52 1
9750 38 1
9750 70 1
9751 2 1
9752 25 1
9752 70 1
9753 45 1
9754 70 1
9755 70 1
9756 71 1
9757 68 1
9758 30 1
9759 54 1
9760 54 1
9761 70 1
9762 48 1
9763 54 1
9764 38 1
9764 62 1
9765 49 1
9765 71 1
9766 52 1
9767 48 1
9768 54 1
9769 34 1
9769 70 1
9770 54 1
9771 13 1
9772 65 1
9773 61 1
9774 38 1
9775 51 1
9775 62 1
9776 52 1
9777 56 1
9778 58 1
9779 71 1
9780 59 1
9781 70 1
9782 70 1
9783 20 1
9783 62 1
9784 70 1
9785 32 1
9785 62 1
9787 60 1
9788 20 1
9789 48 1
9789 62 1
9790 70 1
9791 70 1
9792 25 1
9793 65 1
9794 45 1
9795 52 1
9796 4 1
9796 38 1
9797 6 1
9798 46 1
9799 4 1
9800 43 1
9801 71 1
9802 38 2
9803 38 1
9804 54 1
9805 54 1
9806 52 1
9807 20 1
9807 52 1
9808 45 1
9809 45 1
9810 13 1
9811 54 1
9812 38 1
9813 62 1
9814 31 1
9815 39 1
9816 68 1
9817 62 1
9818 60 1
9820 60 1
9820 70 1
9821 6 1
9822 6 1
9823 38 1
9824 20 1
9825 61 1
9826 38 1
9827 61 1
9828 70 1
9829 61 1
9830 62 1
9830 70 1
9831 60 1
9832 38 1
9833 32 1
9834 26 1
9835 10 2
9836 6 1
9837 20 1
9838 52 1
9838 58 1
9839 60 1
9839 70 1
9840 70 1
9841 30 1
9841 71 1
9842 38 1
9843 6 1
9844 70 1
9845 31 1
9846 70 1
9847 20 1
9847 24 1
9848 30 1
9849 20 1
9849 24 1
9849 70 1
9850 6 1
9850 70 1
9850 71 1
9851 52 1
9851 70 1
9852 45 1
9852 48 1
9853 9 1
9854 52 1
9855 20 1
9856 12 1
9856 13 1
9856 38 2
9856 39 1
9856 68 1
9856 70 1
9856 71 1
9857 70 1
9858 54 1
9859 70 1
9860 43 1
9861 38 1
9861 52 1
9862 6 1
9863 6 1
9864 51 1
9865 30 1
9866 71 1
9867 54 1
9868 70 1
9869 48 1
9870 30 1
9871 52 1
9872 38 1
9873 38 1
9874 68 1
9875 52 1
9876 34 1
9877 71 1
9878 45 1
9879 52 1
9880 25 1
9881 70 1
9882 54 1
9883 5 1
9884 70 1
9885 9 1
9886 51 1
9887 4 1
9888 20 1
9889 33 1
9890 43 1
9891 62 1
9891 70 1
9892 54 1
9893 30 1
9894 72 1
9895 24 1
9895 70 1
9896 4 1
9897 20 1
9898 34 1
9898 35 1
9899 13 1
9899 31 1
9900 25 1
9901 62 1
9902 52 1
9902 55 1
9903 9 2
9904 58 1
9905 70 1
9906 54 1
9907 6 1
9908 34 1
9908 38 1
9909 48 1
9910 43 1
9911 45 1
9912 45 1
9913 61 1
9914 68 1
9915 70 1
9916 62 1
9917 38 1
9918 43 1
9919 49 1
9920 52 1
9921 63 1
9922 68 1
9922 70 1
9923 15 1
9924 32 1
9925 48 1
9926 62 1
9927 3 1
9928 30 1
9929 45 1
9930 70 1
9931 2 1
9931 20 1
9931 30 2
9931 33 1
9931 43 1
9931 49 1
9931 54 1
9931 58 1
9931 60 1
9931 61 1
9931 68 1
9931 70 2
9932 71 1
9933 45 1
9933 63 1
9934 25 1
9934 69 1
9935 54 1
9936 49 1
9937 70 1
9937 71 2
9938 25 1
9938 45 1
9939 54 1
9940 70 1
9941 20 1
9942 70 1
9943 54 1
9944 48 1
9945 62 1
9946 65 1
9947 70 1
9948 30 1
9948 38 1
9949 52 1
9950 71 1
9951 57 1
9952 52 1
9953 62 1
9954 52 1
9955 38 1
9957 45 1
9958 70 1
9959 38 2
9959 70 1
9960 25 1
9961 52 1
9963 65 1
9964 70 1
9966 25 1
9968 52 1
9969 70 1
9970 32 1
9971 71 1
9972 70 1
9973 32 1
9974 59 1
9975 71 1
9976 52 1
9977 34 1
9978 70 1
9979 51 1
9980 70 1
9981 70 1
9982 13 1
9983 14 1
9983 52 1
9984 24 1
9985 44 1
9986 41 1
9987 15 1
9988 65 1
9989 70 1
9990 45 1
9990 52 1
9990 55 1
9990 68 1
9991 62 1
9991 68 1
9992 48 1
9992 60 1
9993 49 1
9994 59 1
9995 25 1
9995 70 1
9996 52 1
9997 18 1
9998 38 1
9999 38 1
10000 54 1
10000 58 2
10001 62 1
10002 13 1
10003 70 1
10005 51 1
10006 41 1
10007 70 1
10008 54 1
10009 70 1
10010 5 1
10011 5 1
10011 60 1
10012 38 1
10013 38 1
10014 70 1
10015 30 1
10015 39 1
10016 70 1
10017 12 1
10018 58 1
10019 45 1
10019 70 1
10020 49 1
10021 71 1
10022 49 1
10023 38 1
10024 12 1
10024 70 1
10025 70 1
10026 20 1
10026 62 1
10027 68 1
10028 20 1
10029 45 1
10030 61 1
10031 70 1
10032 5 1
10033 10 1
10034 62 1
10035 54 1
10036 48 1
10037 30 1
10038 68 1
10039 30 1
10040 52 1
10040 70 1
10041 70 1
10042 60 1
10043 38 1
10044 38 1
10045 70 1
10046 65 1
10047 70 1
10048 6 1
10049 70 1
10050 20 1
10051 45 1
10052 71 1
10053 52 1
10054 10 1
10054 30 1
10055 13 1
10056 70 1
10057 40 1
10058 63 1
10059 24 1
10060 30 1
10061 55 1
10062 12 1
10062 38 2
10062 45 1
10062 49 1
10062 51 1
10062 52 1
10062 62 1
10062 63 1
10062 70 3
10063 9 1
10064 61 2
10065 40 1
10066 20 1
10067 33 1
10068 33 1
10069 65 1
10070 4 1
10070 60 1
10071 4 1
10071 9 2
10071 18 1
10071 21 1
10071 25 3
10071 30 4
10071 31 2
10071 32 2
10071 33 1
10071 34 1
10071 45 2
10071 46 1
10071 51 4
10071 54 4
10071 55 1
10071 58 2
10071 60 1
10071 61 1
10071 62 1
10071 65 1
10071 70 1
10071 71 2
10072 12 1
10072 71 1
10073 71 1
10074 25 1
10074 70 1
10075 70 1
10076 2 1
10077 58 1
10078 9 1
10079 49 1
10080 30 1
10081 9 1
10082 70 1
10083 18 1
10084 9 1
10084 17 1
10084 71 1
10085 61 1
10085 70 2
10086 46 1
10087 70 1
10088 13 1
10088 51 1
10088 60 1
10089 44 1
10090 54 1
10091 55 2
10092 54 1
10093 20 1
10093 45 1
10094 70 1
10095 54 1
10096 55 1
10097 52 1
10098 6 1
10099 34 1
10100 4 1
10101 13 1
10102 62 1
10103 20 1
10104 62 1
10105 62 1
10106 70 1
10107 43 1
10108 70 1
10109 48 1
10110 4 1
10110 70 1
10111 70 1
10112 38 1
10113 70 1
10114 60 1
10115 65 1
10116 70 1
10117 52 1
10118 48 1
10119 70 1
10120 49 1
10121 45 1
10122 33 1
10123 5 1
10124 62 1
10125 4 1
10126 52 1
10126 70 1
10126 71 1
10127 67 1
10128 70 1
10129 70 1
10130 12 1
10131 48 1
10132 18 1
10132 70 1
10133 48 1
10134 13 1
10135 13 1
10135 45 1
10135 62 1
10136 49 1
10137 60 1
10138 25 1
10139 62 1
10139 70 1
10140 54 1
10141 30 1
10142 71 1
10143 52 1
10143 70 1
10144 20 1
10144 38 1
10144 62 1
10144 69 1
10144 70 2
10145 60 1
10145 62 1
10146 49 1
10147 38 1
10148 54 1
10149 70 1
10150 70 1
10151 25 1
10151 68 1
10152 59 1
10153 30 1
10154 26 1
10155 54 1
10156 62 1
10156 70 1
10157 54 1
10158 52 1
10159 25 1
10160 34 1
10161 70 1
10162 51 1
10163 54 1
10164 52 1
10165 6 1
10166 70 1
10167 4 1
10167 38 1
10167 70 2
10168 4 1
10169 45 1
10170 52 1
10171 70 1
10172 51 1
10173 70 1
10174 12 1
10174 23 1
10175 25 1
10176 30 1
10177 7 1
10178 25 1
10179 61 1
10180 51 1
10180 65 1
10181 70 1
10182 38 1
10183 38 1
10184 33 1
10185 32 1
10185 43 1
10186 58 1
10187 38 1
10188 13 1
10188 51 1
10189 65 1
10190 34 1
10191 68 1
10192 71 1
10193 30 1
10194 58 1
10195 45 1
10196 9 1
10196 62 1
10197 52 1
10198 38 1
10198 63 1
10199 70 1
10200 14 1
10201 54 1
10202 71 1
10203 54 1
10204 51 1
10205 25 1
10205 38 1
10206 4 1
10206 70 2
10207 70 1
10208 49 1
10209 32 1
10210 30 1
10211 71 1
10212 13 1
10213 70 1
10214 70 1
10215 23 1
10216 70 1
10217 34 1
10217 52 1
10218 62 1
10219 54 1
10220 51 1
10221 62 1
10222 30 1
10223 70 1
10224 25 1
10225 70 1
10226 61 1
10227 54 1
10227 60 1
10228 13 1
10229 70 1
10230 25 1
10231 49 1
10232 41 1
10233 20 1
10234 52 1
10235 70 1
10236 32 1
10237 70 1
10238 68 1
10238 70 1
10239 20 1
10240 71 1
10241 13 1
10242 14 1
10243 52 1
10244 62 1
10245 34 1
10246 41 1
10247 59 1
10249 68 2
10250 6 1
10251 45 1
10252 43 1
10253 54 1
10253 62 1
10254 70 1
10255 71 1
10256 70 1
10257 51 1
10258 58 1
10259 5 1
10259 33 1
10259 59 1
10260 54 1
10261 13 1
10262 71 1
10263 54 1
10264 20 1
10264 71 1
10265 30 1
10265 51 1
10265 62 1
10266 20 1
10266 58 1
10267 6 1
10268 40 1
10269 62 1
10270 39 1
10271 68 1
10272 70 1
10273 70 1
10274 38 1
10275 68 1
10276 68 1
10277 70 1
10278 71 1
10279 70 1
10280 54 1
10281 70 1
10282 52 1
10283 48 1
10283 70 1
10284 52 1
10285 52 1
10285 65 1
10286 4 1
10286 54 1
10287 54 1
10288 68 1
10288 70 1
10289 45 1
10290 70 1
10291 52 1
10291 60 1
10292 12 1
10293 70 1
10294 47 1
10295 45 1
10296 52 1
10297 9 1
10298 70 1
10299 6 1
10300 48 1
10300 52 1
10301 20 1
10302 5 1
10303 55 1
10304 71 1
10305 65 1
10306 51 1
10307 70 1
10308 52 2
10309 62 1
10310 52 1
10311 70 1
10312 70 1
10313 31 1
10314 51 1
10315 31 1
10316 49 1
10317 10 1
10318 70 1
10320 38 1
10320 51 1
10321 55 1
10322 51 1
10323 62 1
10324 20 1
10325 39 1
10326 54 1
10327 70 1
10328 12 1
10329 9 1
10330 20 1
10331 41 1
10332 25 1
10333 54 1
10334 9 1
10334 68 1
10335 34 1
10335 45 1
10336 48 1
10337 70 1
10338 38 1
10339 34 1
10340 13 1
10340 18 1
10341 51 1
10342 30 1
10342 61 1
10343 54 1
10344 48 1
10345 54 1
10346 38 1
10347 59 1
10348 45 1
10349 30 1
10350 67 1
10351 71 1
10352 25 1
10353 58 1
10354 52 1
10355 18 1
10356 70 1
10357 38 1
10358 70 1
10359 70 1
10360 60 1
10361 30 1
10361 31 1
10362 49 1
10363 54 1
10363 55 1
10365 52 1
10367 30 1
10368 52 1
10369 70 1
10370 38 1
10370 60 1
10371 70 1
10372 25 1
10373 20 1
10373 68 1
10374 55 1
10375 71 1
10376 70 1
10377 45 1
10378 43 1
10379 70 1
10380 54 1
10381 30 1
10382 38 1
10383 45 1
10384 51 1
10384 70 1
10385 25 1
10386 9 1
10386 45 1
10386 68 1
10387 71 1
10388 52 1
10389 13 1
10390 48 1
10391 23 1
10391 52 1
10391 70 2
10393 70 1
10394 51 1
10395 9 1
10395 62 1
10396 70 1
10397 34 1
10398 24 1
10399 52 1
10400 34 1
10400 45 1
10401 38 1
10401 55 1
10402 70 1
10403 12 1
10404 20 1
10406 45 1
10407 70 1
10408 62 1
10409 51 2
10410 62 1
10411 38 1
10412 38 1
10413 70 1
10414 18 1
10414 51 1
10414 52 1
10415 49 1
10416 65 1
10417 71 2
10418 71 1
10419 30 1
10419 38 1
10420 60 1
10421 48 1
10421 52 1
10422 70 1
10423 38 1
10424 52 1
10425 20 1
10426 71 1
10427 38 1
10428 34 1
10429 49 1
10430 38 1
10431 55 1
10432 58 1
10432 62 1
10433 44 1
10434 54 1
10434 70 1
10435 55 1
10436 18 1
10436 20 2
10436 25 1
10436 40 1
10436 43 1
10436 46 1
10436 48 1
10436 51 1
10436 52 1
10436 54 1
10436 61 2
10436 62 1
10436 68 1
10436 71 1
10437 52 1
10438 62 1
10439 70 1
10440 30 2
10441 38 1
10441 58 1
10442 48 1
10443 5 1
10444 61 1
10444 62 1
10445 63 1
10446 70 1
10447 62 1
10448 2 1
10448 25 1
10448 31 1
10448 33 1
10448 51 1
10448 52 1
10448 55 1
10448 61 1
10448 71 4
10449 38 1
10450 62 1
10451 12 1
10452 52 1
10453 71 1
10454 54 1
10455 54 1
10456 70 1
10457 58 1
10458 33 1
10459 65 1
10460 52 1
10461 48 1
10462 3 1
10462 45 1
10463 25 1
10463 38 1
10464 24 1
10464 70 1
10465 38 1
10466 45 1
10467 70 1
10468 52 1
10469 70 1
10470 4 1
10471 70 1
10472 63 1
10472 70 1
10472 71 1
10473 54 1
10474 12 1
10475 38 1
10476 52 1
10477 20 1
10477 48 1
10479 30 1
10479 43 1
10479 51 1
10480 70 1
10481 38 1
10482 51 1
10483 71 1
10484 65 1
10485 70 1
10486 45 1
10487 68 1
10488 59 2
10489 6 1
10490 4 1
10491 59 1
10492 52 1
10493 70 1
10494 70 1
10495 70 1
10496 12 1
10496 43 1
10497 39 1
10498 20 1
10499 20 1
10499 62 1
10500 52 1
10501 60 1
10502 52 1
10503 20 1
10504 62 1
10505 25 1
10505 30 2
10505 38 1
10505 43 1
10505 52 1
10505 68 1
10505 70 1
10506 30 1
10507 52 1
10508 45 1
10509 34 1
10510 70 1
10511 70 1
10512 38 1
10513 54 1
10513 58 1
10514 35 1
10515 68 1
10515 70 1
10516 34 1
10517 51 1
10519 70 1
10520 45 1
10521 70 1
10522 54 1
10523 70 1
10524 71 1
10525 52 1
10526 5 1
10527 70 1
10528 59 1
10529 52 1
10530 54 1
10531 38 1
10532 70 1
10533 70 1
10534 20 1
10535 70 1
10536 63 1
10537 20 1
10537 45 1
10538 32 1
10539 49 1
10540 30 1
10541 48 1
10542 54 1
10543 5 1
10544 40 1
10545 62 1
10545 70 1
10546 54 1
10547 70 1
10548 54 1
10548 70 1
10549 9 1
10550 60 1
10551 13 1
10552 52 1
10552 71 1
10553 38 1
10554 70 1
10555 68 1
10556 51 1
10557 34 1
10558 71 1
10559 20 1
10560 70 1
10561 65 1
10562 67 1
10563 70 1
10564 34 1
10565 38 1
10565 48 1
10565 54 1
10565 70 1
10566 62 1
10567 52 1
10568 52 1
10569 70 1
10570 6 1
10570 38 1
10570 55 1
10570 70 1
10571 33 1
10572 40 1
10573 52 1
10574 34 1
10575 62 1
10576 45 1
10577 70 1
10578 49 1
10579 59 1
10580 52 1
10581 70 1
10582 34 1
10583 70 1
10584 60 1
10585 70 1
10586 70 1
10587 34 1
10588 20 1
10589 9 1
10589 38 1
10589 41 1
10589 48 1
10589 51 1
10590 43 1
10591 54 1
10592 70 1
10593 34 1
10594 45 1
10594 54 1
10595 2 1
10596 48 1
10596 62 1
10597 23 1
10597 45 1
10598 70 1
10599 2 1
10599 34 1
10600 70 1
10601 52 1
10602 13 1
10603 14 1
10604 25 1
10605 33 1
10606 4 1
10607 32 1
10608 70 1
10609 60 1
10610 20 1
10610 70 1
10611 25 1
10612 20 1
10613 38 1
10614 51 1
10615 32 1
10616 34 1
10617 25 1
10618 33 1
10619 70 1
10620 40 1
10621 41 1
10622 70 1
10623 2 1
10623 52 1
10624 68 1
10625 41 1
10626 25 1
10626 52 1
10626 58 1
10627 8 1
10628 13 1
10629 51 1
10630 30 1
10631 51 1
10632 55 1
10633 70 1
10634 70 1
10635 4 1
10635 38 1
10636 20 1
10637 26 1
10638 71 1
10639 2 1
10639 4 1
10639 9 3
10639 18 1
10639 20 2
10639 21 1
10639 24 2
10639 25 6
10639 30 10
10639 31 3
10639 32 4
10639 33 1
10639 34 1
10639 38 5
10639 40 1
10639 43 1
10639 45 4
10639 49 1
10639 51 3
10639 52 3
10639 54 1
10639 58 3
10639 59 3
10639 60 3
10639 61 1
10639 62 3
10639 65 3
10639 68 4
10639 69 1
10639 70 5
10639 71 3
10640 55 1
10641 48 1
10641 70 1
10642 54 1
10643 65 1
10644 51 1
10645 9 1
10646 20 1
10647 38 1
10648 34 1
10649 33 1
10649 71 1
10650 52 1
10651 62 1
10652 4 1
10653 54 1
10653 70 1
10654 61 1
10655 43 1
10656 10 1
10657 18 1
10658 4 1
10659 41 1
10660 45 1
10661 70 3
10662 70 1
10663 52 1
10664 14 1
10664 20 1
10664 60 1
10665 38 1
10666 48 1
10667 68 1
10668 51 1
10668 61 1
10669 70 1
10670 70 1
10671 4 1
10671 70 1
10672 70 1
10673 45 1
10674 18 1
10675 52 1
10676 2 1
10677 1 1
10678 70 1
10679 51 1
10679 70 1
10680 43 1
10681 65 1
10682 32 1
10682 43 1
10683 9 1
10684 45 1
10685 52 1
10686 31 1
10687 30 1
10688 31 1
10689 38 1
10691 52 1
10692 70 1
10693 70 1
10694 34 1
10695 13 1
10696 18 1
10696 68 1
10697 70 1
10698 5 1
10699 4 1
10700 55 1
10701 71 1
10702 65 1
10703 52 1
10704 38 1
10705 70 1
10706 33 1
10706 70 1
10707 70 1
10708 18 1
10709 68 1
10710 68 1
10711 51 1
10712 68 1
10713 51 2
10714 52 1
10715 71 1
10717 20 1
10718 70 1
10719 71 1
10720 71 1
10721 70 1
10722 13 1
10722 52 1
10723 43 1
10723 52 1
10724 70 1
10725 20 1
10726 14 1
10727 38 1
10727 70 1
10728 13 1
10728 34 1
10729 34 2
10729 62 1
10730 45 1
10730 70 1
10731 52 1
10732 20 1
10733 12 1
10734 65 1
10735 20 1
10736 70 1
10737 57 1
10738 60 1
10739 46 1
10740 31 1
10740 51 1
10742 65 1
10743 32 1
10743 42 1
10744 70 1
10745 38 1
10746 30 1
10747 34 1
10748 49 1
10749 6 1
10750 38 1
10751 52 1
10752 25 1
10752 70 1
10753 61 1
10754 39 1
10755 41 1
10756 68 1
10757 9 1
10758 13 1
10759 2 1
10760 62 1
10761 70 1
10762 70 1
10763 71 1
10764 45 1
10765 6 1
10766 45 1
10767 52 1
10767 70 1
10768 68 1
10769 70 1
10770 70 1
10771 70 1
10772 70 1
10773 13 1
10774 40 1
10775 38 1
10776 52 1
10777 52 1
10778 52 1
10779 70 1
10780 6 1
10781 70 1
10783 49 1
10784 12 1
10785 60 1
10787 25 1
10787 39 1
10787 54 1
10788 30 1
10789 70 1
10790 55 1
10790 70 1
10791 5 1
10791 62 1
10791 71 1
10792 45 1
10793 32 1
10793 45 1
10793 58 1
10794 70 1
10795 54 1
10796 25 1
10797 13 1
10798 44 1
10799 38 1
10799 70 1
10800 45 1
10801 70 1
10803 38 1
10804 51 1
10805 62 1
10806 70 1
10807 33 1
10808 70 1
10809 60 1
10810 9 1
10811 52 1
10812 55 1
10813 70 1
10814 10 1
10815 52 1
10815 70 1
10816 41 1
10817 52 1
10818 70 2
10819 44 1
10820 52 1
10821 41 1
10821 62 1
10821 70 1
10822 30 1
10823 71 1
10824 70 1
10825 48 1
10826 62 1
10827 48 1
10828 9 1
10828 59 1
10829 62 1
10830 52 1
10831 63 1
10832 70 1
10833 54 1
10834 45 1
10835 71 1
10836 70 1
10837 65 1
10838 71 1
10839 41 1
10840 62 1
10841 38 1
10841 43 1
10842 55 1
10843 61 1
10845 2 1
10845 20 1
10845 21 3
10845 30 2
10845 33 1
10845 38 1
10845 45 3
10845 55 1
10845 58 1
10845 65 1
10846 51 1
10847 62 1
10848 54 1
10849 70 1
10850 70 1
10851 13 1
10852 43 1
10853 25 1
10854 20 1
10855 62 1
10856 30 1
10857 6 1
10857 43 1
10858 70 1
10859 20 1
10860 52 1
10861 41 1
10862 45 1
10862 68 1
10863 59 1
10864 25 1
10865 34 1
10866 70 1
10867 70 1
10868 61 1
10869 68 1
10870 38 1
10871 30 1
10872 70 1
10873 71 1
10874 43 1
10875 45 1
10875 48 1
10876 71 1
10877 19 1
10878 62 1
10879 51 1
10879 71 1
10880 52 1
10881 51 1
10882 48 1
10883 52 1
10884 32 1
10884 68 1
10885 65 1
10886 54 1
10887 70 1
10888 4 1
10889 5 1
10890 62 1
10891 34 1
10892 71 1
10893 30 1
10894 70 1
10894 71 1
10895 62 1
10895 68 1
10896 54 1
10896 61 1
10897 54 1
10898 9 1
10899 4 1
10899 12 1
10899 30 1
10899 38 1
10899 71 2
10900 24 1
10900 65 1
10901 32 1
10902 2 1
10903 70 2
10904 45 1
10905 38 1
10906 68 1
10907 49 1
10908 38 1
10909 62 1
10910 71 1
10911 51 1
10912 38 1
10913 45 1
10914 38 1
10914 62 1
10915 54 1
10916 51 1
10917 68 1
10918 46 1
10919 71 1
10920 63 1
10921 62 1
10922 23 1
10923 13 1
10924 54 1
10925 59 1
10926 13 1
10926 55 1
10927 4 1
10928 48 1
10929 70 1
10930 9 1
10931 52 1
10931 54 1
10932 70 1
10933 70 1
10934 25 1
10934 30 1
10934 38 1
10934 58 1
10935 38 2
10936 70 1
10937 71 1
10938 71 1
10939 20 1
10940 38 1
10941 13 1
10942 24 1
10943 51 1
10944 70 1
10946 14 1
10947 52 1
10948 70 1
10949 52 1
10950 52 1
10951 54 1
10952 70 1
10953 68 1
10954 48 1
10955 52 1
10957 70 1
10958 70 1
10959 20 1
10960 5 1
10960 54 1
10961 38 1
10961 70 1
10962 60 1
10963 25 1
10964 70 1
10965 52 1
10966 18 1
10967 55 1
10968 70 1
10969 38 1
10970 65 1
10971 20 1
10972 62 1
10972 70 1
10973 62 2
10973 70 1
10974 70 1
10975 70 1
10975 71 1
10976 70 2
10977 70 1
10978 20 1
10979 30 1
10980 38 1
10981 62 1
10982 70 1
10983 65 1
10984 58 1
10985 38 1
10987 30 1
10988 20 1
10989 62 1
10990 6 1
10991 62 1
10992 37 1
10993 25 1
10993 38 1
10994 30 1
10995 24 1
10995 45 1
10995 61 1
10996 70 1
10997 33 1
10998 9 1
10998 18 1
10998 45 1
10999 18 1
10999 62 1
11000 52 1
11000 70 1
11001 48 1
11002 20 1
11003 38 1
11004 10 1
11005 62 1
11006 70 1
11007 34 1
11008 38 1
11008 52 1
11009 54 1
11010 32 2
11011 54 1
11012 71 1
11013 4 1
11013 20 1
11013 45 1
11014 13 1
11015 52 1
11016 43 1
11016 48 1
11016 52 1
11016 63 1
11016 71 1
11017 9 1
11017 51 2
11018 49 1
11019 24 1
11019 60 1
11020 45 1
11021 70 1
11022 62 1
11023 55 1
11024 38 1
11025 70 1
11026 70 1
11027 45 1
11028 24 1
11029 63 1
11030 68 1
11031 61 1
11032 40 1
11033 70 1
11034 70 1
11035 70 1
11036 13 1
11037 38 1
11038 20 1
11038 70 2
11039 70 1
11040 38 1
11040 52 1
11041 45 1
11041 70 2
11042 24 1
11043 70 1
11044 51 1
11045 52 1
11046 71 1
11047 31 1
11048 54 1
11049 51 1
11050 30 1
11051 71 1
11052 34 1
11053 52 1
11054 31 1
11054 52 1
11055 52 1
11056 30 1
11057 71 1
11058 38 1
11059 34 1
11060 38 1
11060 58 1
11061 51 1
11062 47 1
11063 9 1
11063 12 1
11063 34 1
11063 38 1
11063 45 1
11063 52 2
11063 62 1
11063 65 1
11063 70 1
11064 18 1
11065 10 1
11066 48 1
11067 52 1
11069 38 1
11070 59 1
11071 62 1
11071 70 1
11072 31 1
11073 58 1
11074 70 1
11075 70 1
11076 6 1
11077 70 1
11078 14 1
11079 20 1
11080 71 1
11081 48 1
11082 70 1
11083 20 1
11084 44 1
11084 59 1
11085 70 1
11086 54 1
11087 20 1
11088 54 1
11089 71 1
11090 45 1
11091 32 1
11091 61 1
11091 62 2
11092 17 1
11092 70 1
11093 52 2
11094 71 1
11095 62 1
11096 70 1
11097 71 1
11098 38 1
11099 68 1
11100 32 1
11101 38 1
11101 60 1
11102 34 1
11103 61 1
11104 45 1
11104 51 1
11105 51 1
11106 24 1
11107 70 1
11108 52 2
11109 13 1
11109 52 1
11109 68 1
11110 62 1
11111 70 1
11112 20 1
11113 43 1
11114 61 1
11114 70 1
11115 2 1
11116 6 1
11117 13 1
11118 30 1
11119 54 1
11120 41 1
11121 54 1
11122 62 1
11123 52 1
11124 4 1
11125 20 1
11125 70 1
11126 71 1
11127 54 1
11128 38 1
11129 44 1
11130 70 1
11131 70 1
11132 4 1
11133 70 1
11134 48 1
11134 71 1
11135 51 1
11136 24 1
11136 31 1
11137 70 1
11138 5 1
11139 63 1
11140 25 1
11140 52 1
11141 18 1
11142 5 1
11143 20 1
11143 51 1
11143 54 1
11144 43 1
11145 58 1
11146 51 1
11147 68 1
11148 12 3
11148 23 1
11148 24 2
11148 30 2
11148 31 3
11148 33 1
11148 42 1
11148 45 1
11148 48 2
11148 51 1
11148 52 3
11148 55 3
11148 57 1
11148 58 1
11148 61 1
11148 62 11
11148 65 3
11148 68 7
11148 70 1
11148 71 5
11149 43 1
11149 70 1
11150 70 1
11151 51 1
11152 59 1
11154 51 1
11155 34 1
11156 62 1
11157 51 1
11158 52 1
11159 30 1
11159 54 1
11160 17 1
11160 18 1
11161 25 1
11161 52 1
11162 59 1
11163 68 1
11164 46 1
11165 71 1
11166 68 1
11167 52 1
11168 62 1
11169 12 1
11170 70 1
11171 24 1
11171 62 1
11172 54 1
11173 13 1
11174 22 1
11175 34 1
11176 2 1
11177 70 1
11178 62 1
11179 62 1
11179 70 1
11181 25 1
11182 18 1
11183 52 1
11184 17 1
11185 54 1
11186 45 1
11187 58 1
11188 2 1
11188 62 1
11189 51 1
11190 30 1
11191 62 1
11192 52 1
11192 54 1
11193 71 1
11194 70 1
11195 54 1
11196 54 1
11197 43 1
11198 52 1
11200 51 1
11200 54 1
11201 2 1
11201 25 1
11202 70 1
11203 54 1
11204 9 1
11204 52 1
11205 6 1
11206 24 1
11206 70 1
11207 61 1
11208 45 1
11209 45 1
11210 52 1
11211 68 1
11212 7 2
11213 70 1
11214 45 1
11214 58 1
11214 63 1
11215 70 1
11216 2 2
11216 34 1
11216 48 2
11216 51 2
11216 68 1
11216 70 1
11216 71 3
11217 51 1
11217 71 1
11218 43 1
11219 43 1
11220 52 1
11220 70 1
11221 10 1
11222 4 1
11223 38 1
11224 51 1
11224 62 1
11225 71 1
11226 4 1
11226 70 1
11227 38 1
11228 45 1
11229 4 1
11229 6 1
11229 9 3
11229 12 2
11229 13 1
11229 14 1
11229 18 3
11229 20 1
11229 25 9
11229 30 1
11229 32 2
11229 33 1
11229 34 4
11229 38 2
11229 43 3
11229 44 1
11229 45 3
11229 46 2
11229 48 3
11229 49 1
11229 51 7
11229 52 3
11229 54 8
11229 55 1
11229 58 1
11229 60 3
11229 61 1
11229 62 5
11229 65 1
11229 70 12
11229 71 2
11230 71 1
11231 31 1
11231 43 1
11231 61 2
11231 62 1
11231 68 1
11232 61 1
11233 51 1
11233 62 1
11234 58 1
11235 32 1
11236 54 1
11237 37 1
11238 71 1
11239 30 1
11239 70 1
11240 13 1
11241 32 1
11242 20 1
11243 65 1
11244 38 1
11244 52 1
11245 61 1
11245 71 1
11246 45 1
11247 30 1
11248 68 1
11249 70 1
11250 59 1
11251 71 1
11252 23 1
11252 62 1
11253 10 1
11254 65 1
11255 13 1
11255 20 1
11256 70 1
11257 24 1
11258 70 1
11259 58 1
11260 70 1
11261 54 1
11262 25 1
11263 71 1
11264 70 1
11265 68 1
11266 62 1
11267 13 1
11268 55 1
11268 69 1
11269 45 1
11270 62 1
11271 70 1
11272 51 1
11273 47 1
11274 43 1
11275 45 1
11276 51 1
11277 2 1
11277 70 1
11278 20 1
11278 45 1
11279 70 1
11280 70 1
11281 70 1
11282 39 1
11283 70 1
11284 60 1
11285 62 1
11286 62 1
11286 70 1
11287 45 1
11288 21 1
11289 9 1
11290 38 1
11291 38 1
11292 18 1
11293 51 1
11293 54 1
11293 70 1
11294 71 1
11295 52 1
11295 65 1
11296 45 1
11297 38 1
11298 38 1
11299 62 1
11300 70 1
11301 70 1
11302 33 1
11303 70 1
11304 71 1
11305 51 1
11306 20 1
11307 62 1
11307 71 1
11308 6 1
11309 18 2
11310 54 1
11311 62 1
11312 70 1
11313 62 1
11314 10 1
11314 14 1
11315 17 1
11316 20 1
11317 51 1
11318 70 1
11319 70 1
11320 30 1
11321 70 1
11322 52 1
11323 38 1
11324 70 1
11325 19 1
11325 25 1
11325 61 1
11326 31 2
11326 52 1
11327 45 1
11328 70 1
11329 24 1
11329 58 1
11330 62 1
11331 55 1
11332 6 1
11333 49 1
11334 32 1
11334 70 1
11335 54 1
11336 38 1
11337 4 1
11338 54 1
11338 70 1
11339 32 1
11340 45 1
11340 51 1
11341 46 1
11342 6 1
11344 45 1
11345 2 1
11346 20 1
11346 70 1
11347 70 1
11348 70 1
11349 13 1
11350 65 1
11350 70 1
11351 54 1
11352 71 1
11353 44 1
11354 70 1
11355 65 1
11356 43 1
11357 30 1
11358 4 2
11359 51 1
11360 60 1
11361 68 1
11362 18 1
11363 70 1
11364 62 1
11365 6 1
11366 18 1
11367 70 1
11368 5 1
11368 41 1
11369 51 1
11370 25 1
11371 6 1
11372 41 1
11373 55 1
11374 62 1
11375 71 1
11376 54 1
11377 62 1
11378 25 1
11379 70 1
11380 12 1
11380 70 1
11381 54 1
11382 18 1
11383 70 1
11384 15 1
11384 70 1
11385 59 1
11386 70 2
11387 71 1
11388 52 1
11389 10 1
11389 21 1
11389 45 1
11389 49 1
11389 51 1
11390 55 1
11391 25 1
11392 48 1
11393 70 1
11394 13 1
11395 54 1
11396 70 1
11397 48 1
11398 10 1
11398 45 1
11399 62 2
11400 70 1
11401 20 1
11402 21 1
11403 70 1
11404 65 1
11405 54 1
11406 70 1
11407 68 1
11408 62 1
11409 70 1
11410 70 1
11411 25 1
11411 40 1
11412 45 1
11413 52 1
11414 62 1
11415 62 1
11416 30 1
11417 24 1
11417 70 1
11418 70 1
11419 52 1
11420 31 1
11420 34 1
11420 38 1
11420 61 1
11421 38 1
11421 70 1
11422 45 1
11423 25 1
11424 30 1
11424 61 1
11425 70 1
11426 62 1
11426 70 1
11427 70 1
11428 12 1
11428 60 1
11429 13 1
11430 13 1
11430 52 1
11431 23 1
11432 54 1
11433 13 1
11433 70 1
11434 18 1
11435 48 1
11436 54 1
11437 13 1
11437 70 1
11438 41 1
11439 24 1
11440 54 1
11441 19 1
11442 6 1
11443 68 1
11444 10 1
11444 51 2
11445 34 1
11446 14 1
11446 62 1
11447 58 1
11448 52 1
11450 70 1
11451 70 1
11452 60 1
11452 61 1
11453 70 1
11454 33 1
11455 26 1
11455 68 1
11456 51 1
11457 48 1
11458 52 1
11459 32 1
11459 70 1
11460 38 1
11460 70 1
11461 43 1
11462 12 1
11463 71 1
11464 9 1
11464 70 1
11465 4 1
11466 38 1
11467 13 1
11468 39 1
11469 60 1
11470 60 1
11472 30 1
11473 68 1
11474 62 1
11475 51 1
11476 48 1
11477 45 1
11479 70 1
11480 18 1
11481 55 1
11482 14 1
11483 20 1
11484 13 1
11484 30 2
11484 38 1
11484 43 1
11484 51 1
11484 62 2
11485 40 1
11486 38 1
11487 58 1
11488 70 1
11489 38 1
11489 45 1
11489 55 1
11490 54 1
11491 2 1
11492 71 1
11493 70 1
11494 52 1
11494 70 1
11495 38 2
11496 54 1
11497 70 1
11498 32 1
11499 13 1
11500 12 1
11500 70 1
11501 45 1
11502 70 1
11503 45 1
11504 20 1
11505 62 1
11506 12 1
11506 65 1
11506 71 1
11507 38 1
11508 9 1
11509 23 1
11510 62 1
11511 25 1
11511 70 1
11512 57 1
11513 54 1
11514 70 1
11515 70 1
11516 18 1
11517 32 1
11518 70 2
11519 5 1
11520 14 1
11521 70 1
11521 71 2
11522 62 1
11523 45 1
11523 70 1
11524 70 1
11525 18 1
11526 41 1
11526 70 1
11527 48 1
11528 52 1
11529 70 1
11530 33 1
11531 70 1
11532 17 1
11533 20 1
11534 43 1
11535 38 1
11535 51 1
11536 18 1
11537 20 1
11537 52 1
11538 71 1
11539 48 1
11540 54 1
11541 14 1
11542 4 1
11542 24 1
11542 43 1
11542 45 1
11542 52 1
11542 58 1
11542 62 1
11542 71 1
11543 70 1
11544 61 1
11545 2 1
11546 45 2
11547 43 1
11547 70 1
11548 70 2
11549 13 1
11550 12 1
11552 51 1
11553 38 1
11554 32 1
11555 70 1
11556 25 1
11557 20 1
11558 34 1
11558 52 1
11559 38 1
11560 52 2
11560 54 1
11561 54 1
11562 59 1
11563 70 2
11564 70 1
11565 37 1
11566 52 1
11566 54 1
11567 15 1
11567 32 1
11567 52 1
11568 45 1
11568 60 1
11569 17 1
11570 18 1
11571 51 1
11571 71 1
11572 40 1
11573 41 1
11574 55 1
11575 62 1
11576 6 1
11577 70 1
11578 51 1
11579 48 1
11580 71 1
11581 51 1
11581 57 1
11582 65 1
11583 71 1
11584 45 1
11585 9 1
11586 52 1
11587 51 1
11588 33 1
11589 54 1
11590 25 1
11590 52 1
11590 62 1
11591 71 1
11592 54 1
11593 41 1
11594 13 1
11595 24 1
11596 52 2
11597 70 1
11598 60 1
11599 4 1
11599 30 1
11600 30 1
11600 68 1
11601 38 1
11602 18 1
11603 13 1
11603 52 1
11604 70 1
11605 48 1
11606 37 1
11606 45 1
11607 38 1
11608 70 1
11609 42 1
11610 70 1
11611 52 1
11612 51 1
11614 54 1
11615 40 1
11616 54 1
11617 38 1
11618 20 2
11619 62 1
11620 52 1
11621 54 1
11621 62 1
11622 26 1
11622 59 1
11623 48 1
11624 20 1
11625 71 1
11626 71 1
11627 45 1
11627 70 1
11628 20 1
11629 41 1
11629 45 1
11630 45 1
11631 51 1
11632 60 1
11633 48 1
11633 49 1
11634 58 1
11635 70 1
11636 65 1
11637 48 1
11638 25 1
11639 4 1
11640 45 1
11641 70 1
11642 65 1
11643 54 1
11644 48 1
11645 31 1
11645 60 1
11646 48 1
11647 71 1
11648 18 1
11649 38 1
11650 61 1
11651 62 1
11652 25 1
11652 70 2
11653 23 1
11654 71 1
11655 52 1
11656 71 1
11657 46 1
11658 71 1
11659 70 1
11660 70 1
11661 12 1
11662 38 1
11662 70 1
11663 68 1
11664 70 1
11665 38 1
11666 51 1
11666 52 1
11667 62 1
11668 30 1
11668 31 1
11669 30 1
11670 34 1
11671 70 1
11672 61 1
11673 30 1
11673 70 1
11674 8 1
11675 31 1
11676 51 1
11677 59 1
11678 31 1
11679 70 1
11681 62 1
11682 54 1
11683 54 1
11684 20 1
11685 52 1
11686 70 1
11687 70 1
11688 62 1
11689 49 1
11690 45 1
11691 69 1
11692 62 1
11693 43 1
11693 54 1
11694 70 1
11695 59 1
11696 52 1
11697 18 1
11698 52 1
11699 43 1
11699 70 1
11700 20 1
11701 34 1
11702 46 1
11703 70 1
11704 31 1
11704 54 1
11705 54 1
11706 70 1
11707 52 1
11708 20 1
11708 59 1
11709 70 1
11710 38 1
11710 68 1
11711 25 1
11711 60 1
11712 70 1
11713 70 1
11714 38 1
11716 40 1
11717 71 1
11718 23 1
11720 58 1
11721 4 1
11722 49 1
11722 62 1
11723 55 1
11724 30 1
11725 25 1
11726 62 1
11726 71 1
11727 46 1
11728 52 1
11729 54 1
11730 6 1
11731 38 1
11732 13 1
11733 48 2
11734 45 1
11735 52 1
11736 60 1
11737 25 1
11738 30 1
11739 70 1
11740 49 1
11741 70 1
11742 60 1
11742 70 1
11743 49 1
11744 58 1
11746 70 1
11747 38 1
11748 71 1
11749 70 1
11750 70 1
11751 54 1
11752 38 1
11753 54 1
11753 70 1
11754 45 1
11755 58 1
11756 48 1
11757 54 1
11758 17 1
11758 52 1
11759 70 1
11760 52 1
11761 52 1
11762 60 1
11763 20 1
11764 2 1
11765 51 1
11766 70 1
11767 32 1
11767 51 1
11768 63 1
11769 51 1
11770 38 1
11771 9 1
11772 70 1
11773 48 1
11774 65 1
11775 52 1
11776 70 1
11777 62 1
11778 70 1
11779 46 1
11780 52 1
11781 13 1
11781 45 1
11782 54 1
11783 51 1
11784 45 1
11785 48 1
11786 71 1
11787 48 1
11788 52 1
11789 57 1
11790 4 1
11791 5 1
11791 12 1
11791 62 1
11792 70 1
11793 20 1
11794 41 1
11795 38 1
11796 48 1
11797 25 1
11798 55 1
11799 45 1
11800 25 1
11801 52 1
11801 61 1
11802 20 1
11803 31 1
11806 50 1
11807 48 1
11808 41 1
11809 70 1
11810 70 1
11811 41 1
11812 5 1
11812 13 1
11812 60 1
11812 63 1
11812 70 1
11813 9 1
11813 30 1
11814 20 1
11814 70 1
11815 70 1
11816 13 2
11816 70 1
11817 46 1
11818 62 1
11819 61 1
11820 51 1
11821 52 1
11822 49 1
11823 30 1
11824 28 1
11824 59 1
11825 32 1
11825 68 1
11826 70 1
11826 71 1
11827 26 1
11828 21 1
11828 38 1
11829 6 1
11829 54 1
11830 60 1
11831 60 1
11832 30 1
11833 54 1
11833 71 1
11834 39 1
11834 45 1
11834 52 1
11835 38 1
11836 13 1
11837 70 1
11838 70 1
11839 54 1
11840 70 1
11841 70 1
11842 52 1
11843 58 1
11844 38 1
11845 52 1
11845 62 1
11846 20 1
11846 60 1
11846 70 1
11847 69 1
11848 38 1
11848 70 1
11849 62 1
11850 34 1
11850 65 1
11851 31 1
11851 38 1
11852 58 1
11853 70 1
11854 70 1
11855 32 1
11856 54 1
11857 51 1
11858 34 1
11858 62 1
11859 70 1
11860 13 1
11861 24 1
11862 51 1
11863 70 1
11864 70 1
11865 54 1
11866 34 1
11867 20 2
11868 70 2
11869 9 1
11870 59 1
11871 51 1
11872 65 1
11873 51 1
11874 18 1
11874 65 1
11875 48 1
11876 54 1
11877 71 1
11878 9 1
11879 30 1
11880 60 1
11881 30 1
11882 68 1
11883 71 1
11884 25 1
11884 70 1
11885 45 1
11886 70 1
11887 41 1
11888 70 1
11888 71 1
11889 72 1
11890 6 1
11890 13 1
11891 9 1
11891 18 1
11892 13 1
11892 43 1
11893 30 1
11893 59 1
11894 71 1
11895 10 1
11895 18 1
11895 43 2
11895 70 1
11895 71 1
11896 25 1
11897 38 1
11898 58 1
11899 68 1
11900 45 1
11901 41 1
11902 10 1
11903 45 1
11904 45 1
11905 18 1
11906 51 1
11906 62 1
11907 49 1
11908 45 1
11909 52 1
11910 70 1
11911 17 1
11912 70 1
11913 4 1
11913 31 1
11913 54 1
11914 61 1
11914 71 1
11915 42 1
11916 15 1
11918 52 1
11919 45 1
11919 58 1
11920 52 1
11921 45 1
11922 70 1
11923 51 1
11924 70 1
11925 4 1
11926 25 1
11926 70 3
11927 41 1
11928 71 1
11929 38 1
11930 6 1
11930 62 1
11930 71 1
11931 60 1
11932 62 1
11933 13 1
11933 51 1
11933 52 1
11933 71 1
11934 51 1
11935 30 1
11936 34 1
11937 45 1
11938 54 2
11938 71 1
11939 71 1
11940 33 1
11941 20 1
11941 54 1
11942 54 1
11943 30 1
11944 32 1
11944 45 1
11945 71 1
11946 62 1
11947 65 1
11948 54 1
11949 30 1
11950 70 1
11951 18 1
11952 13 1
11952 52 1
11952 70 1
11953 4 1
11953 25 1
11954 12 1
11955 52 1
11956 15 1
11957 20 1
11958 45 1
11959 70 1
11960 62 1
11961 52 1
11962 52 1
11963 65 1
11964 30 1
11965 62 1
11966 61 1
11966 62 1
11967 45 1
11969 45 1
11970 32 1
11971 58 1
11972 62 1
11973 65 1
11974 68 1
11975 62 1
11976 9 1
11977 71 1
11978 70 1
11979 59 1
11980 20 1
11981 20 1
11982 70 1
11983 25 1
11984 70 1
11985 49 1
11986 51 1
11987 54 1
11987 70 1
11988 62 1
11989 32 1
11989 70 1
11990 38 1
11991 70 1
11992 40 1
11993 70 1
11994 60 1
11995 54 1
11996 5 1
11997 25 1
11997 62 1
11998 68 1
11999 5 1
12000 30 1
12001 24 1
12002 52 1
12003 71 1
12004 30 1
12004 70 1
12005 60 1
12006 70 1
12007 6 1
12007 59 1
12008 58 1
12009 45 1
12010 59 1
12011 71 1
12012 30 1
12013 71 1
12014 52 1
12015 61 1
12016 52 1
12017 52 1
12018 20 1
12018 62 2
12019 70 1
12020 24 1
12021 20 1
12022 2 1
12023 71 1
12024 54 1
12025 25 1
12026 70 1
12028 51 1
12029 70 1
12030 2 1
12031 21 1
12031 30 2
12031 49 1
12031 51 1
12031 52 1
12031 63 1
12032 33 1
12033 70 1
12034 13 1
12035 48 1
12035 52 1
12036 71 1
12037 17 1
12037 27 1
12037 30 1
12037 38 1
12037 52 1
12037 61 1
12037 68 2
12038 25 1
12039 45 1
12039 70 1
12040 70 1
12041 70 1
12042 68 1
12043 70 1
12044 62 1
12046 58 1
12047 38 1
12048 61 1
12049 71 1
12050 63 1
12051 60 1
12051 70 1
12052 61 1
12053 65 1
12054 52 1
12055 20 1
12056 62 1
12057 62 1
12058 68 1
12059 58 1
12060 61 1
12061 18 1
12061 58 1
12062 4 1
12062 32 1
12062 59 1
12063 70 1
12064 13 1
12064 51 1
12065 33 1
12065 45 1
12065 70 1
12066 62 1
12067 31 1
12068 70 1
12069 54 1
12070 51 1
12071 52 1
12072 24 1
12073 71 1
12074 62 1
12076 58 1
12077 52 1
12078 52 1
12079 25 1
12080 51 1
12081 52 1
12082 38 1
12082 58 1
12082 71 1
12083 38 1
12084 14 1
12084 38 1
12085 71 1
12086 45 1
12087 20 1
12088 20 1
12088 68 1
12089 2 1
12090 70 1
12091 9 1
12092 52 1
12093 12 1
12094 52 1
12095 38 1
12096 38 1
12097 38 1
12098 62 1
12099 70 1
12100 38 1
12101 49 1
12102 13 1
12103 54 1
12104 5 1
12104 45 1
12104 52 1
12105 9 1
12106 20 1
12107 60 1
12108 38 1
12108 58 1
12109 25 1
12110 63 1
12111 25 1
12112 38 1
12113 62 1
12114 62 2
12115 38 1
12116 25 1
12117 13 1
12118 44 1
12118 54 1
12119 24 1
12120 51 1
12120 58 1
12120 62 1
12121 70 1
12122 70 1
12123 62 1
12124 71 1
12125 56 1
12126 30 1
12128 52 1
12129 31 1
12130 70 1
12131 54 1
12132 39 1
12133 41 1
12134 70 1
12135 45 1
12136 30 1
12137 70 1
12138 52 1
12139 45 1
12140 45 1
12141 52 1
12142 20 1
12142 54 1
12143 13 1
12144 20 1
12145 70 1
12146 70 1
12147 18 1
12147 45 1
12148 71 1
12149 45 1
12150 6 1
12150 60 1
12150 70 1
12151 34 1
12151 70 1
12152 30 1
12153 54 1
12153 60 1
12154 23 1
12154 54 1
12155 70 1
12156 48 1
12157 71 1
12158 52 1
12159 59 1
12160 20 1
12161 10 1
12162 10 1
12163 31 2
12164 13 1
12165 18 1
12166 37 1
12167 40 1
12168 10 1
12169 43 1
12170 1 1
12170 2 16
12170 4 25
12170 5 3
12170 6 12
12170 7 1
12170 8 1
12170 9 12
12170 10 15
12170 11 1
12170 12 2
12170 13 29
12170 14 7
12170 16 1
12170 17 5
12170 18 18
12170 20 32
12170 21 1
12170 23 4
12170 24 20
12170 25 59
12170 26 1
12170 30 61
12170 31 44
12170 32 25
12170 33 17
12170 37 1
12170 38 32
12170 39 1
12170 40 12
12170 41 3
12170 43 71
12170 45 32
12170 46 12
12170 47 3
12170 48 32
12170 49 16
12170 51 36
12170 52 79
12170 54 78
12170 55 5
12170 57 5
12170 58 42
12170 59 18
12170 60 24
12170 61 15
12170 62 36
12170 63 8
12170 64 2
12170 65 27
12170 68 39
12170 69 2
12170 70 61
12170 71 15
12171 51 1
12172 31 1
12173 48 1
12174 49 1
12175 31 1
12176 30 1
12177 54 1
12178 70 2
12179 59 1
12179 70 1
12180 65 1
12181 52 1
12182 70 1
12183 20 1
12183 62 1
12184 21 1
12184 70 1
12185 52 1
12186 70 1
12187 2 1
12188 52 2
12189 32 1
12190 58 1
12191 48 1
12192 9 1
12192 33 1
12193 51 1
12194 13 1
12195 34 1
12196 52 1
12197 54 1
12198 62 1
12199 20 1
12199 70 1
12199 71 1
12200 52 1
12201 52 1
12202 30 1
12203 6 1
12203 62 1
12204 65 1
12205 61 1
12206 13 1
12207 52 1
12208 48 1
12209 70 1
12210 58 1
12211 46 1
12211 62 1
12212 23 1
12213 70 1
12214 6 1
12215 70 1
12216 62 1
12217 51 1
12218 62 1
12219 54 1
12220 70 1
12221 31 1
12222 70 1
12223 44 1
12223 54 1
12224 40 1
12225 4 1
12226 9 1
12226 38 1
12227 70 1
12228 25 1
12229 12 1
12230 51 1
12232 34 1
12233 25 1
12234 45 1
12235 43 2
12236 70 2
12237 12 1
12238 13 1
12239 30 1
12240 71 1
12241 70 2
12242 4 1
12242 62 1
12243 68 1
12244 18 1
12245 52 1
12246 51 1
12247 61 1
12248 45 1
12249 52 1
12250 62 1
12251 51 1
12251 70 1
12252 52 1
12252 70 1
12253 18 1
12254 45 1
12255 54 1
12256 4 1
12257 41 1
12258 33 1
12259 71 1
12260 58 1
12261 24 1
12261 48 1
12262 58 1
12263 71 1
12264 13 1
12265 70 1
12266 30 1
12267 58 1
12268 70 1
12269 70 1
12270 71 1
12271 52 1
12271 60 1
12272 65 1
12273 33 1
12273 54 1
12274 52 1
12275 51 1
12276 38 1
12276 44 1
12277 52 1
12278 52 1
12279 70 1
12280 54 1
12281 70 1
12282 20 1
12283 13 1
12284 70 1
12285 58 1
12285 68 1
12286 58 1
12287 30 1
12288 52 1
12288 59 1
12288 71 1
12289 43 1
12289 52 1
12290 30 1
12290 52 1
12291 61 1
12292 5 1
12293 70 1
12294 4 1
12295 13 1
12296 70 1
12297 12 1
12298 30 1
12299 60 1
12300 58 1
12301 58 1
12302 48 1
12303 70 1
12304 4 1
12305 70 1
12306 58 1
12307 52 1
12308 41 1
12308 45 1
12309 71 1
12310 34 1
12311 13 1
12312 40 1
12312 54 1
12313 68 1
12314 54 1
12315 54 1
12316 18 1
12316 38 1
12316 70 1
12317 54 1
12318 34 1
12319 9 1
12320 70 1
12321 52 1
12322 18 1
12323 48 1
12324 42 1
12325 70 1
12326 25 1
12327 54 1
12328 70 1
12329 70 1
12330 51 1
12330 68 1
12331 62 1
12332 55 1
12333 38 1
12334 38 1
12335 62 1
12336 52 1
12337 70 1
12338 45 1
12339 2 1
12339 5 1
12339 20 2
12339 24 1
12339 30 5
12339 38 1
12339 45 2
12339 52 1
12339 58 1
12339 62 2
12339 70 1
12340 70 1
12341 38 1
12341 52 2
12342 45 1
12342 71 1
12343 8 1
12344 5 1
12345 70 1
12346 26 1
12347 62 1
12348 25 1
12348 71 1
12349 62 1
12350 45 1
12351 62 1
12352 33 1
12353 52 1
12354 38 1
12355 52 1
12356 59 1
12357 70 1
12358 58 1
12359 71 1
12360 20 1
12360 52 1
12360 62 2
12361 30 1
12361 71 1
12362 70 1
12363 24 1
12364 9 1
12365 60 1
12366 52 1
12367 23 1
12368 46 1
12369 38 1
12370 45 1
12370 70 5
12371 52 1
12372 52 1
12373 71 1
12374 38 1
12375 46 1
12376 51 1
12377 41 1
12378 45 1
12379 9 1
12380 58 1
12381 70 1
12382 71 1
12383 52 1
12384 70 1
12385 30 1
12385 51 1
12386 52 1
12387 52 1
12388 30 1
12389 9 1
12389 54 1
12390 4 1
12391 13 1
12392 71 1
12393 54 1
12394 12 1
12395 51 1
12396 25 1
12397 45 1
12398 70 1
12399 43 1
12400 70 1
12401 34 1
12402 38 1
12403 45 1
12404 38 1
12404 45 1
12405 45 1
12406 68 1
12407 61 1
12408 70 1
12409 32 1
12409 41 1
12409 70 1
12410 2 1
12411 70 1
12412 26 1
12413 48 1
12414 61 1
12415 51 1
12416 51 1
12417 51 1
12418 70 1
12419 70 1
12420 4 1
12421 70 1
12422 38 1
12423 38 1
12424 45 1
12425 13 1
12426 51 1
12426 52 1
12427 59 1
12428 2 1
12429 60 1
12430 62 1
12431 31 1
12432 70 1
12433 25 1
12433 61 1
12433 70 1
12434 70 1
12435 43 1
12436 68 1
12437 62 1
12438 70 1
12438 71 2
12439 45 1
12440 4 1
12441 63 1
12441 70 1
12442 5 1
12442 70 1
12443 70 1
12444 62 1
12445 62 1
12445 70 1
12446 23 1
12447 18 1
12448 52 1
12449 31 1
12449 61 1
12450 54 1
12451 48 1
12452 63 1
12453 52 1
12454 39 1
12455 52 1
12456 12 1
12457 70 1
12458 71 1
12459 33 1
12459 54 1
12460 70 1
12461 6 1
12462 54 1
12463 45 1
12464 30 1
12466 34 1
12467 20 1
12468 4 1
12469 62 1
12470 18 1
12471 5 1
12472 30 1
12473 51 1
12474 38 1
12474 58 2
12475 61 1
12476 30 1
12477 13 1
12478 70 1
12479 21 1
12480 54 1
12482 70 1
12483 70 1
12484 62 1
12485 17 1
12487 71 1
12488 33 1
12489 25 1
12490 45 1
12491 52 1
12492 31 1
12492 62 1
12493 30 1
12494 68 1
12495 52 1
12495 61 1
12495 70 1
12496 70 1
12497 70 1
12499 18 1
12500 51 1
12501 70 1
12502 51 1
12503 30 2
12503 31 1
12504 20 1
12504 43 1
12504 59 1
12504 63 1
12504 71 1
12505 26 1
12505 62 1
12505 70 1
12506 52 1
12507 48 1
12508 71 1
12509 70 1
12510 70 1
12511 30 1
12512 70 1
12513 34 2
12514 73 1
12515 62 1
12516 52 1
12517 70 1
12518 70 1
12519 38 1
12519 70 1
12520 49 1
12521 18 1
12522 51 1
12523 6 1
12524 70 1
12525 31 1
12526 62 2
12527 49 1
12528 20 1
12529 5 1
12530 71 1
12531 31 1
12532 71 2
12533 58 1
12533 71 1
12534 38 1
12535 61 1
12536 13 1
12537 68 1
12539 68 1
12540 62 1
12541 71 1
12542 70 1
12543 56 1
12544 54 1
12544 68 1
12545 24 1
12546 38 1
12547 70 1
12548 54 1
12549 38 1
12550 65 1
12551 38 1
12551 52 1
12553 52 1
12554 70 1
12555 30 1
12556 52 1
12557 52 1
12558 70 1
12559 70 1
12560 52 1
12561 13 1
12561 20 1
12561 32 1
12562 54 1
12563 6 1
12563 62 1
12564 34 1
12566 45 1
12566 55 1
12567 70 1
12568 20 1
12569 40 1
12570 40 1
12571 49 1
12572 6 1
12573 51 1
12573 62 1
12573 70 1
12574 32 1
12575 54 1
12576 30 1
12577 38 1
12577 71 1
12578 45 1
12578 48 1
12578 60 1
12579 34 1
12580 62 1
12581 52 1
12582 38 1
12583 30 1
12584 33 1
12585 38 1
12586 33 1
12587 70 1
12588 4 1
12589 70 1
12590 62 1
12591 48 2
12592 62 1
12593 20 1
12594 24 1
12594 70 1
12595 33 1
12596 70 1
12597 25 1
12598 70 1
12599 23 1
12600 20 1
12601 62 1
12602 38 1
12603 51 1
12604 10 1
12605 52 1
12605 68 1
12606 71 1
12607 71 1
12608 48 1
12609 45 1
12611 20 1
12612 54 1
12613 38 1
12614 60 1
12615 34 1
12615 71 1
12616 13 1
12617 30 1
12618 33 1
12619 38 1
12620 52 1
12621 59 1
12621 62 1
12621 68 1
12622 25 1
12623 24 1
12624 70 1
12625 6 1
12626 52 1
12627 12 1
12628 52 1
12628 70 1
12629 9 1
12629 58 1
12630 52 1
12630 71 1
12631 55 1
12632 25 1
12632 71 1
12633 70 1
12634 70 1
12635 52 1
12636 18 1
12637 52 1
12638 20 1
12639 20 1
12640 33 1
12640 62 1
12641 25 1
12642 38 1
12643 38 1
12644 45 1
12645 52 1
12646 39 1
12647 70 1
12648 40 1
12648 45 1
12648 52 1
12649 60 1
12650 70 1
12651 45 1
12652 38 1
12653 49 1
12653 61 1
12654 45 1
12655 33 1
12656 38 1
12657 45 2
12658 62 1
12659 49 1
12660 20 1
12661 61 1
12662 30 1
12663 46 1
12664 54 1
12665 55 1
12666 20 1
12667 17 1
12668 62 1
12668 70 5
12669 43 1
12669 51 1
12670 13 1
12671 18 1
12672 38 1
12673 38 1
12675 71 1
12676 62 1
12677 38 2
12678 39 1
12679 43 1
12679 70 1
12680 20 1
12680 68 1
12681 54 1
12682 55 1
12683 51 1
12684 25 1
12684 51 1
12685 70 1
12686 25 1
12687 34 1
12688 62 1
12689 49 1
12689 70 1
12690 54 1
12691 59 1
12692 2 1
12693 20 1
12694 71 1
12695 20 1
12696 52 1
12697 62 1
12697 71 1
12698 45 1
12698 51 1
12698 70 1
12699 62 1
12700 38 1
12701 30 1
12702 48 1
12703 20 1
12704 54 1
12705 60 1
12706 58 1
12707 71 1
12708 70 1
12709 62 1
12710 4 1
12711 62 1
12712 4 1
12713 62 1
12714 4 1
12715 32 1
12716 70 1
12717 45 2
12718 51 1
12719 25 1
12720 52 1
12720 62 1
12721 38 1
12722 45 1
12723 38 1
12724 70 1
12725 62 1
12726 48 1
12727 6 1
12728 7 1
12729 52 1
12730 18 1
12730 25 1
12730 34 1
12730 38 1
12730 52 1
12730 54 1
12730 60 1
12730 62 1
12730 63 1
12730 71 1
12731 70 1
12732 70 1
12733 6 1
12733 51 1
12734 31 1
12735 12 1
12736 41 1
12737 20 1
12738 43 1
12739 4 1
12740 23 1
12741 71 1
12742 63 1
12743 25 2
12744 54 1
12745 70 1
12746 60 1
12747 70 1
12748 70 1
12749 6 1
12750 70 1
12751 70 1
12752 70 1
12753 13 1
12754 10 1
12754 70 1
12754 71 1
12755 62 1
12756 38 1
12756 54 1
12757 71 2
12758 51 1
12758 62 1
12758 70 1
12758 71 1
12759 52 1
12760 38 1
12761 45 1
12761 70 1
12762 31 1
12763 20 1
12764 68 1
12766 45 1
12768 57 1
12769 20 1
12770 59 1
12771 65 1
12772 70 1
12773 54 1
12774 70 1
12775 49 1
12776 70 1
12777 31 1
12777 54 1
12777 62 1
12777 70 1
12778 38 1
12779 62 1
12780 13 1
12781 70 1
12782 6 1
12783 34 1
12784 62 2
12785 58 1
12786 52 1
12787 13 1
12788 70 1
12789 34 1
12790 38 1
12791 60 1
12792 51 1
12793 51 1
12794 43 1
12795 24 1
12796 25 1
12797 14 1
12798 13 1
12799 70 2
12800 51 1
12801 41 1
12802 34 1
12803 4 1
12804 45 1
12805 13 1
12806 38 1
12807 20 1
12808 61 1
12809 70 1
12810 54 1
12811 60 1
12812 52 1
12813 10 1
12814 45 1
12815 58 1
12815 59 1
12816 10 1
12817 24 1
12818 68 1
12819 20 1
12820 65 1
12821 18 1
12822 51 1
12823 60 1
12824 48 1
12825 70 1
12826 68 1
12827 38 2
12828 52 1
12829 70 1
12830 51 1
12831 45 1
12832 45 1
12833 39 1
12833 54 1
12834 34 1
12835 38 1
12836 58 1
12837 59 1
12838 70 2
12839 60 1
12840 52 1
12841 38 1
12842 54 1
12843 62 1
12844 39 1
12844 49 1
12845 12 1
12846 70 1
12847 34 1
12847 40 1
12848 52 1
12849 38 1
12849 52 1
12850 38 1
12851 20 1
12852 65 1
12853 51 1
12854 62 1
12855 20 1
12856 70 1
12857 51 1
12858 4 1
12858 70 1
12859 38 1
12860 70 1
12861 51 1
12861 70 1
12862 18 1
12863 68 1
12863 70 1
12864 38 1
12864 49 1
12864 70 2
12865 34 1
12866 24 1
12866 25 1
12867 65 1
12868 55 1
12869 18 1
12870 51 1
12871 5 1
12871 31 1
12871 51 1
12872 71 1
12873 13 1
12874 70 1
12875 4 1
12876 58 1
12877 52 1
12878 31 1
12878 32 1
12879 54 1
12880 70 1
12881 30 1
12882 70 1
12883 48 1
12884 15 1
12884 38 1
12885 70 1
12886 23 1
12887 13 1
12888 55 1
12889 4 1
12890 34 1
12891 31 1
12892 33 1
12893 34 1
12894 70 1
12895 20 1
12896 12 1
12897 13 1
12898 49 1
12899 54 1
12900 21 1
12901 38 1
12902 45 1
12903 48 1
12904 52 1
12905 18 1
12906 45 1
12907 45 1
12908 49 1
12909 10 1
12910 51 1
12911 70 1
12912 20 1
12912 45 1
12912 54 1
12913 54 1
12914 45 1
12914 51 1
12915 54 1
12916 20 1
12916 70 1
12917 38 1
12918 62 1
12919 52 1
12919 70 1
12920 31 1
12921 70 1
12922 52 1
12923 13 1
12923 70 1
12924 70 1
12925 9 1
12926 43 1
12927 37 1
12928 70 1
12929 70 1
12930 60 1
12931 38 1
12932 71 1
12933 55 1
12933 70 1
12934 45 1
12935 60 1
12936 4 1
12937 68 1
12938 20 1
12939 70 1
12940 13 1
12941 71 1
12942 62 1
12943 62 1
12944 45 1
12945 52 1
12946 45 1
12947 62 1
12948 25 1
12948 70 1
12949 42 1
12950 71 1
12951 51 1
12952 61 1
12953 62 1
12954 44 1
12955 61 1
12956 70 1
12957 38 1
12957 52 1
12958 4 1
12959 48 1
12960 40 1
12962 51 1
12963 60 1
12964 38 1
12964 70 1
12965 38 1
12966 51 1
12967 71 1
12968 70 1
12969 61 1
12970 38 1
12971 20 1
12972 45 1
12973 70 1
12974 38 1
12975 70 1
12976 54 1
12977 51 1
12977 70 1
12978 52 1
12979 43 1
12979 70 1
12980 71 1
12981 58 1
12982 70 1
12983 40 1
12983 70 1
12984 55 1
12985 48 1
12985 68 1
12985 70 1
12986 71 1
12987 54 1
12987 62 1
12988 20 1
12988 51 1
12989 51 1
12990 70 1
12991 38 1
12992 54 1
12993 4 1
12994 54 1
12995 51 1
12996 71 1
12997 13 2
12998 45 1
12999 38 1
13000 52 1
13001 58 1
13002 54 1
13003 70 1
13003 71 1
13004 30 1
13005 18 1
13006 62 1
13007 18 1
13008 52 1
13009 51 1
13010 54 1
13011 12 1
13011 58 1
13012 20 1
13013 54 1
13014 60 1
13015 39 1
13015 51 2
13015 70 1
13016 20 1
13017 70 1
13018 41 1
13019 70 1
13020 33 1
13020 38 1
13021 20 2
13022 6 1
13023 45 1
13024 16 1
13025 31 1
13026 54 1
13027 71 1
13028 54 1
13029 40 1
13029 52 1
13030 52 1
13031 54 1
13032 9 1
13032 70 1
13033 62 1
13034 51 1
13035 25 1
13036 43 1
13038 65 1
13039 52 1
13039 71 1
13040 9 1
13040 51 1
13041 54 1
13042 45 1
13043 51 1
13044 70 1
13045 13 1
13046 70 1
13047 18 1
13048 38 1
13049 51 1
13051 13 1
13052 51 1
13053 71 1
13054 51 1
13055 9 1
13055 12 1
13056 61 1
13057 54 1
13058 14 1
13059 70 1
13061 6 1
13061 10 1
13061 30 1
13061 43 1
13061 54 1
13061 58 1
13061 68 1
13062 30 1
13064 52 1
13065 70 1
13066 52 1
13067 51 1
13068 70 1
13069 71 1
13070 70 1
13071 48 1
13072 34 1
13073 33 1
13074 45 1
13075 38 1
13076 62 1
13077 60 1
13078 71 1
13079 70 1
13080 12 1
13081 62 1
13082 18 1
13083 70 1
13084 71 1
13085 25 1
13086 73 1
13087 54 1
13088 69 1
13089 52 1
13090 43 1
13090 47 1
13090 58 1
13091 20 1
13092 49 1
13093 61 1
13094 70 1
13095 34 1
13095 61 1
13096 70 1
13097 45 1
13097 71 1
13098 52 1
13099 23 1
13099 45 1
13100 13 1
13100 30 1
13101 20 1
13102 4 1
13103 18 1
13104 52 1
13105 52 1
13106 31 1
13107 51 1
13108 51 1
13109 39 1
13110 58 1
13111 70 1
13112 43 1
13113 17 1
13114 60 1
13115 52 1
13116 51 2
13116 62 1
13117 51 1
13117 52 1
13118 60 1
13119 14 1
13120 20 1
13121 4 1
13122 54 1
13123 54 1
13124 62 1
13125 10 1
13126 25 1
13127 70 1
13128 30 1
13129 54 1
13130 48 1
13130 70 2
13131 32 1
13132 4 1
13133 54 1
13134 38 1
13135 20 1
13135 59 1
13136 54 1
13137 62 1
13138 4 1
13139 34 1
13140 13 1
13141 49 1
13142 25 1
13143 72 1
13144 70 1
13145 49 1
13146 71 1
13147 30 1
13148 45 1
13148 59 1
13148 62 1
13149 52 1
13150 38 1
13151 62 1
13152 9 1
13152 49 1
13153 38 1
13154 61 1
13154 62 1
13155 70 1
13156 38 1
13157 61 1
13158 70 2
13159 6 1
13160 43 1
13161 43 1
13162 45 1
13162 70 2
13163 55 1
13164 62 1
13165 59 1
13166 69 1
13167 23 1
13168 13 1
13168 58 1
13169 20 1
13170 38 1
13171 30 1
13171 38 1
13171 58 1
13171 71 2
13172 52 1
13174 34 1
13174 54 1
13175 70 1
13176 70 2
13177 70 1
13178 68 1
13179 54 1
13180 70 1
13181 67 1
13182 14 1
13183 60 1
13184 52 1
13184 70 1
13185 62 1
13186 54 1
13186 62 1
13187 62 1
13188 70 1
13189 32 2
13190 45 1
13191 45 1
13192 38 1
13193 52 1
13194 52 1
13194 65 1
13195 31 1
13196 30 1
13197 70 1
13198 54 1
13199 52 1
13200 65 1
13201 25 1
13202 52 1
13203 52 1
13204 45 2
13205 52 1
13205 68 1
13206 62 1
13207 71 1
13208 51 1
13209 52 1
13210 68 1
13211 14 1
13212 62 1
13213 62 1
13214 65 1
13215 12 1
13216 52 1
13217 13 1
13218 55 1
13219 62 1
13220 23 1
13221 30 1
13222 68 1
13223 60 1
13224 45 1
13224 54 1
13225 33 1
13226 4 1
13227 71 1
13228 71 1
13229 71 1
13230 30 1
13231 62 1
13232 18 1
13232 45 1
13232 52 1
13232 70 1
13233 14 1
13233 39 1
13234 65 1
13235 45 1
13236 68 1
13237 71 2
13238 62 1
13239 54 1
13240 1 1
13241 60 1
13242 70 1
13243 44 1
13243 49 1
13244 70 1
13245 52 1
13245 70 1
13246 39 1
13247 48 1
13248 70 1
13249 21 1
13250 70 2
13251 30 1
13252 13 1
13253 45 1
13254 60 1
13254 62 1
13255 25 1
13256 52 1
13256 54 1
13256 59 1
13257 32 1
13258 45 1
13259 68 1
13259 70 1
13260 38 1
13261 51 1
13262 70 1
13263 63 1
13264 32 1
13267 52 1
13268 20 1
13268 45 1
13269 58 1
13270 40 1
13271 48 1
13272 4 1
13273 4 1
13274 62 1
13275 71 1
13276 38 1
13277 25 1
13278 45 1
13279 4 1
13279 5 1
13279 25 1
13280 34 1
13281 68 1
13282 23 1
13283 45 2
13284 54 1
13285 41 1
13286 70 1
13287 38 1
13288 60 1
13289 58 1
13290 45 1
13291 38 1
13291 48 1
13291 52 1
13291 62 2
13292 40 1
13293 65 1
13294 30 1
13296 58 1
13298 38 1
13299 52 1
13300 70 1
13301 32 1
13302 38 1
13303 62 1
13304 34 1
13305 45 1
13306 70 1
13307 70 1
13308 70 1
13309 54 1
13310 6 1
13310 20 1
13310 25 1
13311 61 1
13312 71 1
13313 70 1
13314 45 1
13315 55 1
13316 70 1
13317 71 1
13318 71 1
13319 4 1
13320 70 1
13321 62 1
13322 31 1
13323 43 1
13324 1 1
13325 6 2
13325 70 2
13326 71 1
13327 70 2
13328 52 1
13329 70 1
13330 32 1
13331 71 1
13332 71 1
13333 6 1
13333 32 1
13333 62 1
13333 70 1
13334 62 1
13335 17 1
13336 70 1
13337 2 1
13338 30 1
13339 63 1
13340 52 1
13341 20 1
13342 52 1
13343 70 1
13344 24 1
13345 70 1
13346 60 1
13347 45 1
13348 52 1
13349 54 1
13349 60 1
13350 24 1
13351 34 1
13352 9 1
13353 34 1
13354 51 1
13354 62 1
13355 34 1
13356 18 1
13357 58 1
13358 69 1
13359 65 1
13360 16 1
13362 62 1
13364 70 1
13365 45 1
13365 68 1
13366 55 1
13367 9 1
13367 68 1
13368 70 1
13369 25 1
13370 52 1
13371 54 1
13372 52 2
13373 13 1
13374 54 1
13374 70 1
13375 30 1
13376 32 1
13377 13 1
13378 62 1
13379 10 1
13380 58 1
13381 52 1
13382 41 1
13382 45 1
13382 51 1
13382 61 1
13383 62 1
13384 60 1
13385 70 1
13386 70 1
13387 38 1
13388 12 1
13389 71 1
13390 45 1
13391 49 1
13392 25 1
13393 16 1
13394 70 2
13395 55 1
13396 54 1
13397 61 1
13398 30 1
13399 54 1
13400 71 1
13401 45 1
13402 24 1
13402 30 1
13402 57 1
13402 65 1
13403 30 1
13404 34 1
13405 25 1
13405 30 1
13406 71 1
13407 65 1
13407 70 1
13408 71 1
13409 5 1
13410 32 1
13411 54 1
13412 52 1
13413 70 1
13414 70 1
13415 70 1
13416 25 1
13417 68 1
13417 70 1
13418 52 1
13419 45 1
13420 52 1
13420 62 1
13421 52 1
13422 54 1
13423 51 1
13424 45 1
13425 13 1
13425 30 1
13425 71 1
13426 51 1
13427 62 1
13428 70 2
13429 70 1
13430 45 1
13431 4 1
13432 70 1
13433 20 1
13434 4 1
13434 13 1
13435 12 1
13436 63 1
13436 70 1
13437 34 1
13437 60 1
13438 70 1
13439 54 1
13440 52 1
13441 9 1
13442 9 1
13443 41 1
13444 24 1
13445 38 1
13445 62 1
13446 48 1
13446 58 1
13447 70 1
13448 45 1
13449 54 1
13449 62 1
13450 38 1
13451 52 1
13452 70 1
13453 70 1
13454 43 1
13455 70 1
13456 48 1
13457 70 1
13458 54 1
13459 30 1
13460 20 1
13461 52 1
13462 25 1
13463 25 1
13463 43 1
13463 62 2
13466 54 1
13467 70 1
13468 4 1
13469 63 1
13470 71 1
13471 30 1
13471 62 1
13472 54 1
13472 70 1
13473 70 1
13474 9 1
13475 58 1
13476 4 1
13477 70 1
13478 10 1
13478 38 1
13479 45 1
13480 54 1
13481 70 1
13482 45 1
13483 52 1
13484 33 1
13485 20 1
13485 30 1
13485 45 1
13485 68 1
13486 43 1
13487 45 1
13488 70 2
13489 70 1
13490 18 1
13491 49 1
13493 20 1
13494 55 1
13495 13 1
13495 38 1
13496 24 1
13497 70 1
13498 30 1
13499 70 1
13500 13 1
13501 45 1
13501 68 1
13502 52 1
13503 4 1
13504 30 1
13505 30 1
13506 70 1
13507 25 1
13508 34 1
13509 34 2
13509 61 1
13510 31 1
13511 71 1
13512 38 1
13513 20 1
13513 62 1
13514 58 1
13515 5 1
13515 62 1
13516 13 1
13517 70 1
13518 38 1
13519 43 1
13520 62 1
13521 58 1
13522 60 1
13523 13 1
13524 6 1
13525 62 1
13526 12 1
13527 54 1
13528 70 1
13529 62 1
13529 68 1
13530 58 1
13531 13 1
13532 58 1
13533 18 1
13534 23 1
13535 51 1
13535 59 1
13536 13 1
13537 18 1
13538 13 1
13539 20 1
13540 58 1
13541 71 1
13542 34 1
13543 38 1
13544 62 1
13545 62 1
13546 54 1
13547 71 1
13548 70 1
13549 52 1
13550 52 1
13551 70 1
13552 54 1
13553 52 1
13554 70 1
13555 52 1
13556 20 1
13557 38 1
13558 25 1
13559 13 1
13559 70 1
13560 52 1
13561 70 1
13562 70 1
13563 70 1
13564 45 1
13565 54 1
13565 62 1
13566 52 1
13567 70 1
13568 52 1
13569 20 1
13570 24 1
13570 70 1
13571 13 1
13571 62 1
13571 68 1
13571 70 1
13572 68 1
13573 20 1
13574 70 1
13575 70 1
13576 9 1
13577 30 1
13578 34 1
13579 18 1
13580 38 1
13581 58 1
13582 45 1
13583 62 1
13584 38 1
13585 58 1
13586 30 1
13586 46 1
13586 69 1
13587 58 1
13587 60 1
13588 70 1
13589 58 1
13590 23 1
13591 33 1
13592 38 1
13592 62 2
13593 18 1
13593 20 1
13593 52 1
13593 62 1
13593 70 4
13595 45 1
13596 32 1
13596 62 1
13597 70 1
13598 52 1
13598 58 1
13599 68 1
13600 38 1
13601 6 1
13602 45 1
13603 6 1
13604 30 1
13604 70 1
13605 4 1
13605 5 1
13605 12 4
13605 18 1
13605 34 1
13605 39 1
13605 44 1
13605 54 1
13605 58 1
13605 62 1
13605 63 1
13605 70 1
13605 71 4
13606 43 1
13607 70 1
13608 9 1
13609 12 1
13610 14 1
13611 48 2
13612 70 1
13613 49 1
13614 70 1
13615 45 1
13616 32 1
13617 58 1
13618 70 1
13619 30 1
13620 5 1
13620 62 1
13621 43 1
13622 70 1
13623 58 1
13624 70 1
13625 54 1
13626 33 1
13627 48 1
13628 62 1
13628 69 1
13629 43 1
13630 70 1
13631 70 1
13632 54 1
13634 46 1
13635 13 1
13636 49 1
13637 5 1
13638 38 2
13639 34 1
13640 18 1
13641 70 1
13642 68 1
13643 54 1
13644 14 1
13644 25 1
13645 34 1
13646 63 1
13647 49 1
13648 30 1
13648 52 1
13649 70 1
13650 2 1
13651 54 2
13652 14 1
13654 61 1
13655 71 1
13656 70 1
13657 51 1
13658 13 1
13659 18 1
13660 25 1
13661 13 1
13662 52 1
13663 45 1
13663 52 1
13664 30 1
13665 45 1
13665 61 3
13666 62 1
13667 20 1
13668 68 1
13669 71 1
13671 51 1
13672 68 1
13673 65 1
13674 52 1
13675 26 1
13676 65 1
13677 38 1
13678 63 1
13679 34 1
13680 25 1
13681 70 1
13682 51 1
13683 51 1
13684 70 1
13685 33 1
13685 54 1
13686 71 1
13687 71 1
13688 70 1
13689 65 1
13690 12 1
13691 51 1
13691 54 1
13692 9 1
13693 10 1
13694 70 1
13695 52 1
13696 58 1
13697 33 1
13699 62 1
13700 9 1
13701 51 1
13702 52 1
13703 59 1
13704 52 1
13705 38 1
13706 51 1
13707 52 1
13707 70 1
13708 70 1
13709 49 1
13710 48 1
13710 58 1
13711 62 1
13712 24 1
13713 45 1
13714 24 1
13715 71 1
13716 52 1
13716 70 1
13717 70 1
13718 34 1
13720 71 1
13721 25 1
13721 38 1
13721 68 1
13722 18 1
13723 33 1
13724 38 1
13725 71 1
13726 52 1
13727 51 1
13727 70 1
13728 4 1
13728 13 1
13728 38 1
13729 62 1
13730 31 1
13730 52 1
13731 70 1
13732 18 1
13733 60 1
13734 49 1
13735 49 1
13736 9 1
13737 62 1
13738 25 1
13738 70 1
13739 70 1
13740 68 1
13741 59 1
13742 70 1
13743 52 1
13744 18 1
13745 2 1
13746 4 1
13746 20 1
13746 24 1
13747 54 1
13747 61 1
13748 55 1
13749 14 1
13750 38 1
13750 62 1
13751 70 1
13752 62 1
13753 52 1
13753 54 1
13754 18 1
13755 39 1
13756 45 1
13756 70 1
13757 70 1
13758 23 1
13759 52 1
13760 70 1
13761 30 1
13762 54 1
13763 2 1
13763 32 1
13763 47 1
13763 62 1
13764 9 1
13765 70 1
13766 54 1
13767 52 1
13768 52 1
13769 71 1
13770 48 1
13771 61 1
13772 68 1
13773 4 1
13773 46 1
13774 62 1
13774 70 1
13775 25 1
13776 54 1
13778 4 1
13779 6 1
13780 51 1
13781 13 1
13782 71 1
13783 38 1
13784 62 2
13785 52 1
13786 34 1
13787 43 1
13788 58 2
13789 54 1
13790 23 1
13791 30 1
13792 38 1
13793 25 1
13793 59 1
13794 38 1
13795 70 1
13796 52 1
13797 62 1
13798 58 1
13799 48 1
13800 30 1
13801 70 1
13802 38 1
13803 70 1
13804 70 1
13805 52 1
13806 70 2
13807 44 1
13808 20 1
13809 52 1
13810 38 1
13811 71 1
13812 38 1
13813 54 1
13813 70 1
13814 30 1
13815 63 1
13816 20 1
13817 20 1
13818 70 1
13819 62 1
13820 51 1
13822 52 1
13823 57 1
13824 12 1
13825 63 1
13826 54 1
13827 32 1
13828 38 1
13828 52 1
13829 21 1
13829 38 1
13830 62 1
13831 70 1
13832 20 1
13833 52 1
13834 30 1
13835 70 1
13836 70 1
13837 30 1
13838 43 1
13838 71 1
13839 13 1
13839 18 1
13839 38 2
13839 52 1
13839 70 1
13840 68 1
13841 70 1
13842 60 1
13843 70 1
13844 71 1
13845 70 1
13846 52 1
13847 25 1
13848 51 1
13849 17 1
13850 70 4
13851 68 1
13852 70 1
13853 33 1
13854 38 2
13855 70 1
13856 9 1
13857 65 1
13858 45 1
13858 58 1
13859 62 1
13860 38 1
13861 48 1
13862 54 1
13863 45 1
13863 63 1
13864 46 1
13865 70 1
13866 70 1
13867 38 1
13868 62 1
13869 32 1
13870 62 1
13872 62 1
13873 60 1
13874 4 1
13875 18 1
13876 54 1
13877 48 1
13878 70 1
13879 54 1
13880 33 1
13881 31 1
13882 38 1
13883 55 1
13884 34 1
13885 52 1
13886 51 1
13887 9 1
13888 48 1
13889 38 1
13890 14 1
13891 70 1
13892 65 1
13893 65 1
13894 70 1
13895 24 1
13896 58 1
13897 33 1
13898 62 1
13899 70 1
13900 52 1
13901 52 1
13902 62 1
13903 52 1
13904 71 1
13905 12 1
13906 45 1
13906 70 1
13906 71 1
13907 30 1
13908 70 1
13909 70 1
13910 43 1
13911 43 1
13912 60 1
13913 41 1
13914 20 1
13915 32 1
13916 45 1
13917 62 1
13918 71 1
13919 52 1
13920 2 2
13920 13 4
13920 18 1
13920 20 2
13920 24 1
13920 28 2
13920 30 1
13920 31 2
13920 32 1
13920 33 1
13920 38 3
13920 39 1
13920 40 2
13920 45 6
13920 51 3
13920 55 1
13920 61 3
13920 62 5
13920 65 1
13920 70 2
13920 71 1
13921 62 1
13922 70 1
13923 52 1
13924 70 1
13925 48 1
13926 12 1
13927 45 1
13928 54 1
13929 51 1
13930 2 1
13931 54 1
13932 25 1
13933 30 1
13933 38 1
13934 25 1
13935 70 1
13936 52 2
13937 3 1
13938 70 1
13939 49 1
13940 51 1
13941 4 1
13941 45 1
13942 60 1
13943 17 1
13944 20 1
13945 71 1
13946 71 1
13947 71 1
13948 55 1
13948 70 1
13949 18 1
13949 34 1
13950 68 1
13951 52 1
13952 52 1
13952 71 1
13953 32 1
13954 58 1
13955 4 1
13955 34 1
13955 52 1
13955 60 1
13955 70 1
13956 13 1
13957 62 1
13958 48 1
13959 68 1
13960 31 1
13960 70 1
13961 59 2
13962 34 1
13963 70 1
13964 51 1
13965 70 1
13966 62 1
13967 70 1
13968 25 1
13969 32 1
13970 30 1
13970 70 1
13971 51 1
13972 23 1
13973 45 1
13973 62 1
13974 59 1
13975 70 1
13976 54 1
13977 70 1
13978 45 1
13979 70 1
13980 49 1
13981 71 1
13982 70 1
13983 48 1
13984 4 1
13985 49 1
13986 70 1
13987 68 1
13988 71 1
13989 52 1
13990 38 1
13991 5 1
13992 4 1
13992 59 1
13993 70 1
13994 62 1
13995 70 1
13996 9 1
13997 24 1
13998 52 1
13999 58 1
14000 51 1
14001 34 1
14002 45 1
14002 70 1
14003 45 1
14004 61 1
14005 54 1
14006 30 2
14007 70 1
14008 43 1
14008 70 1
14009 40 1
14009 71 1
14010 25 1
14010 38 1
14011 13 1
14012 25 1
14013 4 1
14014 70 1
14015 52 1
14016 52 1
14017 38 1
14017 65 1
14018 38 1
14018 51 1
14019 32 1
14019 70 1
14020 38 1
14020 45 2
14020 59 1
14020 62 2
14020 70 3
14021 6 1
14022 51 1
14022 70 1
14023 68 1
14024 65 1
14025 49 1
14026 52 1
14027 46 1
14028 40 1
14029 40 1
14029 60 1
14030 2 1
14030 52 1
14030 60 1
14031 48 1
14032 51 1
14033 70 1
14034 59 1
14035 13 1
14036 31 2
14037 18 1
14038 45 1
14039 13 1
14039 62 1
14040 70 1
14041 13 1
14041 62 1
14042 54 2
14043 52 1
14044 70 1
14046 52 1
14047 71 1
14048 71 1
14049 13 1
14049 45 1
14049 58 1
14050 48 1
14051 38 1
14051 48 1
14051 70 2
14052 30 1
14053 52 1
14054 4 1
14055 38 1
14056 46 1
14057 70 1
14058 54 1
14059 51 1
14060 30 1
14061 9 1
14062 45 1
14063 48 2
14064 58 1
14064 63 1
14065 58 1
14065 61 1
14065 70 1
14066 58 1
14067 4 1
14068 23 1
14069 70 1
14070 30 1
14071 38 1
14072 48 1
14073 70 1
14074 70 1
14075 52 1
14077 54 1
14078 44 1
14079 52 1
14079 57 1
14080 49 1
14080 70 1
14081 60 1
14082 62 1
14083 71 1
14084 54 1
14085 13 1
14085 65 1
14086 70 1
14087 13 1
14088 4 1
14088 51 1
14089 70 1
14090 52 1
14091 55 1
14091 62 1
14091 70 1
14092 70 1
14093 52 1
14094 51 1
14095 52 1
14096 70 1
14097 62 1
14098 70 1
14099 6 1
14099 71 1
14100 62 1
14102 52 1
14103 62 1
14104 70 1
14105 54 1
14105 70 1
14107 48 1
14108 34 1
14108 52 1
14109 38 1
14110 13 1
14110 48 1
14110 70 1
14111 48 1
14112 24 1
14114 5 1
14115 58 1
14116 70 1
14117 65 1
14118 48 1
14119 31 1
14120 54 1
14121 58 1
14122 2 1
14123 70 1
14124 65 1
14125 33 1
14125 54 1
14126 2 1
14127 2 1
14127 14 1
14127 24 1
14127 25 2
14127 30 2
14127 34 2
14127 38 1
14127 43 2
14127 45 2
14127 48 1
14127 49 1
14127 52 3
14127 58 1
14127 62 2
14127 65 1
14128 70 1
14129 70 1
14130 70 1
14131 20 1
14132 12 1
14132 71 1
14133 38 1
14134 48 1
14135 63 1
14136 62 1
14138 38 1
14139 45 1
14140 2 1
14141 62 2
14142 39 1
14143 55 1
14144 10 1
14144 51 1
14145 20 1
14146 58 1
14147 25 1
14147 38 1
14148 54 1
14149 62 1
14150 70 1
14151 38 1
14152 38 2
14153 38 1
14154 70 1
14155 42 1
14156 61 1
14157 48 1
14158 55 1
14159 70 1
14160 43 1
14161 70 1
14162 52 1
14163 70 1
14164 20 1
14164 70 1
14165 6 1
14166 20 1
14167 58 1
14168 54 1
14169 38 1
14170 31 1
14171 61 1
14172 12 1
14173 70 3
14174 45 1
14174 70 1
14175 30 1
14176 62 1
14177 70 1
14178 38 1
14179 38 1
14180 61 1
14181 38 1
14181 48 1
14182 65 1
14183 12 1
14184 40 1
14185 59 1
14185 71 1
14186 18 1
14186 71 1
14187 32 1
14187 59 1
14188 39 1
14189 55 1
14190 60 1
14191 70 1
14193 48 1
14194 45 1
14195 13 1
14196 65 1
14197 25 1
14198 54 1
14199 30 1
14199 37 1
14200 32 1
14200 43 1
14201 34 1
14202 4 1
14202 71 1
14203 62 1
14204 60 1
14205 70 1
14206 26 1
14208 52 1
14209 58 1
14210 70 2
14211 52 1
14212 54 1
14213 54 1
14214 45 1
14215 63 1
14216 70 1
14217 70 1
14218 61 1
14219 57 1
14220 52 1
14221 6 1
14222 70 1
14223 51 1
14224 43 1
14225 49 1
14225 63 1
14226 70 1
14227 70 1
14228 49 1
14229 70 1
14230 54 1
14231 70 1
14232 54 1
14233 70 2
14234 45 1
14235 70 1
14236 4 1
14237 48 1
14238 70 1
14239 9 1
14239 10 1
14239 45 1
14240 48 1
14241 34 1
14242 52 1
14242 70 1
14243 13 1
14244 45 1
14245 33 1
14246 38 1
14246 62 1
14247 54 1
14248 2 1
14249 43 1
14251 51 1
14252 62 1
14253 4 1
14253 54 1
14254 51 1
14255 61 2
14256 40 1
14257 49 1
14257 54 1
14258 25 1
14259 34 1
14260 71 1
14261 4 1
14261 14 1
14262 2 1
14263 9 1
14264 38 1
14265 70 1
14266 6 1
14267 70 1
14268 14 1
14268 52 1
14269 70 1
14270 70 1
14271 48 1
14272 68 1
14273 54 1
14274 62 1
14275 51 1
14276 59 1
14277 68 1
14278 59 1
14279 5 1
14280 60 1
14281 6 1
14281 38 1
14281 62 1
14282 31 1
14283 70 1
14284 20 1
14284 38 1
14285 13 1
14286 4 1
14287 70 1
14288 71 1
14289 38 1
14290 52 1
14291 68 1
14292 38 1
14293 40 1
14294 41 1
14294 58 1
14295 61 1
14295 70 1
14296 38 1
14297 38 1
14298 13 1
14299 60 1
14300 13 1
14301 52 1
14302 9 1
14303 38 1
14304 60 1
14304 70 1
14305 52 1
14306 70 1
14307 70 1
14308 70 1
14309 70 1
14310 4 1
14310 62 1
14311 12 1
14311 52 1
14312 71 1
14313 54 1
14314 48 1
14315 52 1
14316 24 1
14317 51 1
14318 14 1
14319 52 1
14320 58 1
14320 71 1
14321 62 1
14322 39 1
14323 34 1
14323 70 1
14324 52 1
14324 62 1
14325 62 1
14326 71 1
14327 34 1
14327 52 1
14328 62 2
14328 71 1
14329 60 1
14330 24 1
14331 70 1
14332 41 1
14333 70 1
14334 62 1
14334 70 1
14335 40 1
14336 43 1
14337 9 1
14338 24 1
14339 61 1
14340 68 1
14341 4 1
14342 30 1
14343 9 1
14344 52 1
14345 70 1
14346 33 1
14347 70 1
14348 54 1
14349 38 1
14351 13 1
14352 54 1
14353 54 1
14353 62 1
14354 24 1
14354 62 1
14355 45 1
14356 71 1
14357 18 1
14359 30 1
14360 20 1
14360 70 1
14361 55 1
14361 70 1
14362 18 1
14363 39 1
14363 70 1
14364 34 1
14365 4 1
14365 41 1
14366 14 1
14367 13 1
14368 70 1
14369 65 1
14370 20 1
14371 58 1
14372 68 1
14373 38 1
14374 4 1
14375 12 1
14376 70 1
14377 70 1
14378 62 1
14379 43 1
14380 45 1
14381 6 1
14382 70 1
14383 30 1
14384 70 1
14385 4 1
14386 70 1
14387 43 1
14388 13 1
14389 45 1
14390 52 1
14391 54 1
14392 54 1
14393 45 1
14394 52 1
14395 30 1
14396 57 1
14397 70 1
14398 32 1
14399 18 1
14400 10 1
14401 14 1
14402 23 1
14402 25 1
14403 52 1
14404 38 1
14406 4 1
14407 62 1
14407 65 1
14407 70 1
14408 52 1
14409 61 1
14410 52 1
14411 4 1
14411 70 2
14412 70 1
14413 49 1
14413 70 1
14414 20 1
14415 58 1
14416 70 1
14417 62 1
14418 46 1
14419 20 1
14419 38 1
14420 70 2
14421 51 1
14422 61 1
14423 70 1
14424 51 1
14424 58 1
14425 59 1
14426 61 1
14427 62 1
14428 34 1
14429 13 1
14430 48 1
14431 70 1
14432 1 1
14433 5 1
14434 44 1
14435 70 1
14436 61 1
14437 68 1
14438 70 1
14439 68 1
14440 12 1
14442 48 1
14443 38 1
14443 70 1
14444 70 1
14445 51 1
14446 54 1
14447 62 1
14448 13 1
14449 18 1
14450 61 1
14451 70 1
14452 63 1
14453 67 1
14454 55 1
14455 38 1
14456 30 1
14457 70 1
14458 24 1
14459 70 1
14460 58 1
14461 62 1
14462 68 1
14463 54 1
14464 51 1
14465 30 1
14466 70 1
14467 25 2
14467 70 1
14468 62 1
14469 4 1
14470 68 1
14471 70 1
14472 70 1
14473 70 1
14474 63 1
14475 49 1
14475 70 1
14476 23 1
14477 20 1
14478 6 1
14480 51 1
14480 62 1
14480 70 1
14481 51 1
14482 68 1
14483 54 1
14484 4 1
14485 4 1
14486 52 1
14487 18 1
14488 45 1
14489 71 1
14490 2 1
14491 70 1
14492 45 1
14493 70 1
14494 62 2
14495 65 1
14496 13 1
14497 45 1
14497 70 3
14498 41 1
14498 49 1
14498 70 1
14499 51 1
14500 70 1
14501 51 1
14502 60 1
14503 58 1
14504 71 1
14505 4 1
14506 6 1
14506 55 1
14507 46 1
14508 20 1
14509 4 1
14510 70 1
14511 6 1
14511 30 1
14512 52 1
14513 52 1
14514 43 1
14515 18 1
14516 44 1
14516 52 2
14516 60 1
14516 70 1
14517 33 1
14518 34 1
14519 38 1
14520 54 1
14521 52 1
14522 25 1
14523 45 1
14523 52 1
14524 70 1
14525 60 1
14526 14 1
14527 30 1
14528 61 1
14528 62 1
14529 70 1
14530 13 1
14530 20 1
14530 38 1
14530 45 1
14530 51 1
14530 54 1
14530 62 1
14530 70 1
14531 33 1
14532 62 1
14533 38 1
14534 52 1
14535 13 1
14536 33 1
14537 20 1
14538 70 1
14539 54 1
14540 70 1
14541 13 1
14542 49 1
14543 54 1
14544 39 1
14545 52 1
14546 43 1
14547 10 1
14548 34 1
14549 52 1
14550 54 1
14551 25 1
14552 18 2
14552 32 1
14553 38 1
14554 70 1
14555 13 1
14555 52 1
14556 24 1
14557 62 1
14558 38 1
14559 71 1
14560 70 1
14561 38 1
14561 45 1
14562 58 1
14563 44 1
14563 70 2
14563 71 1
14564 23 1
14565 58 1
14566 63 1
14567 68 2
14568 55 1
14569 51 1
14570 58 1
14571 39 1
14572 31 1
14573 61 1
14574 6 1
14574 38 1
14575 18 1
14575 62 1
14576 67 1
14577 13 1
14578 31 1
14578 34 1
14579 58 1
14580 58 1
14581 20 1
14582 31 1
14583 2 1
14583 38 1
14583 71 1
14584 25 1
14585 52 1
14586 33 1
14587 45 1
14587 52 1
14588 52 1
14589 68 1
14590 45 1
14590 52 1
14591 69 1
14592 61 1
14594 63 1
14595 55 1
14596 51 1
14597 70 1
14598 70 1
14599 71 1
14600 70 1
14601 51 1
14602 48 1
14603 13 1
14604 71 1
14605 9 1
14605 71 1
14606 38 1
14607 70 1
14608 38 1
14609 71 1
14610 25 1
14610 52 1
14610 58 1
14611 68 1
14612 51 1
14613 52 1
14614 43 1
14615 54 1
14616 71 1
14617 31 1
14618 9 1
14619 52 1
14620 70 1
14621 9 1
14622 6 1
14622 45 1
14622 54 1
14624 68 1
14625 60 1
14625 62 1
14627 54 1
14628 51 1
14629 52 1
14630 45 1
14631 41 1
14632 62 1
14633 38 1
14634 71 1
14635 24 1
14635 52 1
14636 45 1
14637 45 1
14638 68 1
14639 20 1
14640 9 1
14641 49 1
14642 70 1
14643 54 1
14644 46 1
14645 13 1
14645 14 1
14645 58 1
14645 62 1
14646 70 1
14647 4 1
14648 54 1
14649 6 1
14650 38 1
14650 71 1
14651 70 1
14652 49 1
14652 70 1
14653 45 1
14653 47 1
14653 67 1
14654 70 1
14655 70 1
14656 49 1
14657 54 1
14658 8 1
14659 52 1
14660 54 2
14661 70 1
14662 71 1
14663 46 1
14664 48 1
14665 59 1
14666 70 1
14668 70 1
14669 2 1
14669 30 1
14670 54 1
14671 71 1
14672 38 1
14673 6 1
14674 70 1
14675 70 1
14676 43 1
14677 71 1
14678 30 1
14679 61 1
14680 12 1
14681 62 1
14682 32 1
14683 54 1
14684 6 1
14685 43 1
14686 52 1
14687 54 1
14689 62 1
14690 70 1
14691 54 1
14692 42 1
14693 52 1
14695 9 1
14695 70 1
14696 51 1
14697 70 1
14698 6 1
14698 70 1
14699 38 1
14699 43 1
14700 54 1
14700 70 1
14701 38 1
14702 18 1
14703 60 1
14704 52 1
14705 67 1
14706 54 1
14707 31 1
14708 13 1
14708 26 1
14709 13 1
14710 52 1
14711 18 1
14712 48 1
14713 38 1
14714 62 1
14715 6 1
14716 51 1
14716 62 1
14717 60 1
14718 70 1
14719 21 1
14720 60 1
14721 58 1
14722 48 1
14723 68 1
14724 58 1
14725 65 1
14726 45 1
14727 45 1
14728 52 1
14729 62 1
14730 65 1
14731 5 1
14732 65 1
14733 62 1
14734 61 1
14735 59 2
14736 24 1
14736 51 1
14736 70 1
14737 4 1
14738 20 1
14739 45 1
14740 4 1
14740 54 1
14741 44 1
14741 62 1
14742 49 1
14743 52 1
14744 68 1
14745 52 1
14746 62 1
14747 45 1
14748 40 1
14749 45 1
14750 38 1
14751 45 1
14752 52 1
14753 18 1
14754 52 2
14755 52 1
14756 45 1
14757 70 1
14758 61 1
14759 70 1
14759 71 1
14760 71 1
14761 61 1
14762 38 1
14763 65 1
14764 13 1
14765 4 1
14766 31 1
14767 38 1
14768 52 1
14769 62 1
14770 45 1
14771 68 1
14772 30 1
14773 51 1
14774 20 1
14775 17 1
14777 6 1
14777 48 1
14777 55 1
14777 71 1
14778 32 1
14779 62 1
14780 52 1
14781 40 1
14781 70 1
14782 10 1
14782 20 1
14783 58 1
14784 32 2
14785 71 1
14786 18 1
14787 34 1
14789 70 1
14790 39 1
14791 31 1
14792 24 1
14792 70 1
14792 71 1
14793 60 1
14794 71 1
14795 54 1
14796 49 1
14797 68 1
14798 30 1
14799 18 1
14800 40 1
14801 65 1
14802 10 1
14803 38 1
14804 52 1
14804 71 1
14805 70 1
14806 71 1
14807 2 1
14808 70 1
14809 70 1
14810 60 1
14811 70 2
14812 38 1
14813 25 1
14814 49 1
14815 54 1
14816 2 1
14816 39 1
14817 38 1
14818 43 1
14819 49 1
14820 32 1
14821 58 1
14822 54 1
14823 18 1
14824 25 1
14826 52 1
14827 61 1
14828 54 1
14830 62 1
14831 70 1
14832 70 1
14833 4 1
14834 48 1
14835 54 1
14836 45 1
14838 33 1
14839 49 1
14840 45 1
14841 70 1
14842 23 1
14843 70 1
14844 20 1
14845 70 1
14846 54 1
14847 12 1
14847 62 1
14847 70 1
14848 70 1
14849 38 1
14850 71 1
14851 49 1
14852 39 1
14853 62 1
14853 70 1
14854 38 1
14855 51 1
14856 8 1
14857 38 1
14858 52 1
14859 40 1
14860 38 1
14861 55 1
14862 38 1
14864 70 1
14865 70 1
14866 60 1
14867 38 1
14868 65 1
14869 38 1
14870 45 1
14871 14 1
14872 54 1
14873 51 1
14874 62 1
14874 70 2
14875 70 1
14876 30 1
14876 48 1
14877 51 1
14878 38 1
14879 52 1
14880 62 1
14881 48 1
14881 70 1
14882 4 1
14882 46 1
14883 52 1
14883 60 1
14884 39 1
14885 52 1
14886 49 1
14887 59 1
14888 13 1
14889 46 1
14890 38 1
14891 68 1
14892 63 1
14893 38 1
14894 9 1
14895 52 1
14896 52 1
14897 45 1
14898 70 1
14899 44 1
14900 71 1
14901 59 1
14902 2 1
14903 40 1
14904 31 1
14905 49 1
14906 51 1
14907 70 1
14908 31 1
14909 17 1
14909 30 1
14910 20 1
14910 30 1
14911 71 1
14912 24 1
14913 52 1
14914 59 1
14915 51 1
14916 54 1
14917 70 1
14918 68 1
14918 70 1
14919 63 1
14920 61 1
14921 12 1
14921 25 1
14922 70 1
14923 57 1
14924 38 1
14925 13 1
14925 52 1
14926 13 1
14927 38 1
14927 70 1
14928 30 1
14928 34 1
14928 62 1
14929 8 1
14929 52 1
14930 49 1
14930 62 1
14931 70 1
14932 52 1
14933 70 1
14934 2 1
14934 18 1
14934 70 1
14935 25 1
14936 70 1
14937 54 1
14938 48 1
14939 45 1
14940 6 1
14941 62 1
14942 25 1
14943 62 1
14944 4 1
14945 45 1
14946 62 1
14947 12 1
14947 45 1
14947 49 1
14947 52 1
14947 61 1
14947 62 3
14948 58 1
14948 60 1
14949 10 1
14950 4 1
14951 38 1
14952 68 1
14953 51 2
14954 52 1
14955 62 1
14956 38 1
14956 59 1
14957 25 1
14957 51 1
14958 27 1
14958 70 1
14959 30 1
14960 34 1
14961 70 1
14962 38 1
14962 52 1
14963 5 1
14964 52 1
14965 38 1
14966 70 1
14967 13 1
14967 45 1
14968 59 1
14969 13 1
14969 59 1
14970 21 1
14970 50 1
14971 54 1
14973 4 1
14974 30 1
14975 51 2
14976 62 1
14977 60 1
14978 70 1
14979 62 2
14980 15 1
14981 42 1
14982 59 1
14983 38 1
14984 71 1
14985 70 1
14986 25 2
14987 38 1
14988 65 1
14989 13 1
14990 52 1
14990 68 1
14990 70 3
14991 51 1
14991 70 1
14992 4 1
14992 25 1
14993 54 1
14993 65 1
14994 70 1
14995 52 1
14996 70 1
14997 52 1
14998 60 1
14999 12 1
15000 14 1
15001 65 1
15002 51 1
15002 60 1
15003 58 1
15004 51 1
15005 46 1
15005 70 1
15006 62 1
15007 21 1
15008 38 1
15009 70 1
15010 51 1
15011 41 1
15012 51 1
15013 70 1
15014 70 1
15015 70 1
15016 70 1
15017 68 1
15018 5 1
15019 25 1
15019 45 1
15019 48 1
15020 61 1
15021 62 1
15022 45 1
15022 70 1
15023 52 1
15025 71 1
15026 13 1
15027 38 1
15028 38 1
15029 30 1
15029 34 2
15030 60 1
15031 70 2
15032 46 1
15033 62 1
15034 25 1
15035 51 1
15036 9 1
15037 13 1
15038 68 1
15038 70 1
15039 58 2
15039 68 1
15040 24 1
15040 38 2
15040 70 1
15042 23 1
15043 48 1
15044 48 1
15046 59 1
15047 52 1
15048 38 2
15049 6 1
15050 60 1
15051 51 1
15051 70 1
15052 18 1
15053 8 1
15053 30 1
15054 70 1
15055 52 1
15055 70 1
15056 62 1
15057 62 1
15058 54 2
15059 2 1
15060 52 1
15061 51 1
15062 59 1
15063 45 1
15064 51 1
15064 70 1
15065 45 1
15066 20 1
15066 38 1
15067 30 1
15068 20 1
15069 13 2
15070 70 2
15071 70 1
15072 34 1
15074 20 1
15074 60 2
15075 51 1
15076 70 1
15077 34 1
15078 18 1
15079 52 1
15080 38 1
15080 71 1
15081 61 1
15082 52 1
15083 65 1
15084 59 1
15085 12 1
15086 48 1
15087 51 1
15088 62 1
15089 70 1
15090 62 1
15091 60 1
15091 70 1
15092 38 1
15093 20 1
15093 30 1
15094 50 1
15095 67 1
15096 52 1
15097 34 1
15097 63 1
15098 45 1
15099 34 1
15099 52 1
15100 48 1
15100 52 1
15101 4 1
15102 45 1
15103 32 1
15104 70 1
15105 20 1
15106 8 1
15107 52 1
15108 52 1
15109 45 1
15109 61 1
15110 69 1
15111 24 1
15111 34 1
15112 70 1
15113 45 1
15114 20 1
15114 45 1
15115 58 1
15116 12 1
15117 38 1
15117 71 1
15118 54 1
15119 72 1
15120 70 1
15121 5 2
15121 70 2
15122 71 1
15123 70 1
15124 58 1
15125 58 1
15126 25 1
15127 70 1
15128 70 1
15129 62 1
15130 70 1
15131 20 1
15131 49 1
15131 54 1
15132 24 1
15132 30 1
15132 52 1
15133 54 1
15134 48 1
15135 38 1
15136 62 1
15137 58 1
15138 70 1
15139 70 1
15140 13 1
15140 40 1
15140 52 1
15140 58 1
15140 62 1
15140 70 1
15141 51 1
15142 25 1
15143 39 1
15144 48 1
15145 65 1
15146 60 1
15147 34 1
15148 52 1
15149 62 1
15150 6 1
15151 9 1
15152 14 1
15153 54 1
15154 17 1
15155 54 1
15156 54 1
15157 70 1
15158 68 1
15159 54 1
15159 71 1
15160 49 1
15161 71 1
15162 70 1
15163 34 1
15164 32 1
15165 33 1
15165 52 2
15166 38 1
15166 40 1
15167 13 2
15167 45 1
15167 58 1
15168 68 1
15169 45 1
15170 4 1
15171 70 1
15172 70 1
15173 52 1
15174 25 1
15174 51 1
15175 70 1
15176 59 1
15177 38 1
15178 60 1
15179 6 1
15179 54 1
15180 62 1
15181 62 1
15182 68 1
15184 51 1
15185 30 1
15185 38 1
15185 63 1
15185 70 1
15186 23 1
15187 4 1
15188 52 1
15189 45 1
15189 62 1
15189 70 1
15190 61 1
15191 70 1
15192 60 1
15193 18 1
15193 61 1
15194 44 1
15194 68 1
15195 10 1
15196 71 1
15197 70 1
15198 45 1
15199 45 1
15200 70 1
15201 62 1
15202 6 1
15203 20 1
15204 70 1
15205 43 1
15206 71 1
15207 13 1
15208 4 1
15209 38 1
15209 70 1
15210 24 1
15211 70 1
15212 71 1
15213 58 1
15214 51 1
15215 5 1
15215 52 1
15215 60 1
15216 51 1
15217 70 1
15218 54 1
15219 34 1
15219 45 1
15219 60 1
15220 71 1
15221 52 1
15221 71 1
15222 52 1
15223 54 1
15224 34 1
15224 54 1
15225 61 1
15226 2 1
15227 62 1
15228 20 1
15229 54 1
15230 61 1
15231 70 1
15232 54 1
15233 13 1
15233 14 1
15234 40 1
15235 68 1
15236 55 1
15236 70 1
15237 33 1
15238 65 1
15239 58 1
15240 61 1
15241 60 1
15242 70 1
15243 52 1
15243 71 1
15244 70 1
15245 2 1
15246 30 1
15246 70 1
15247 71 2
15248 12 1
15249 54 1
15249 71 1
15250 26 1
15251 62 1
15252 70 1
15253 70 1
15254 70 2
15255 62 1
15256 39 1
15257 62 1
15258 71 1
15259 70 1
15260 14 1
15261 25 1
15262 31 1
15263 54 1
15264 48 1
15265 6 1
15265 31 1
15265 52 1
15266 52 1
15268 62 1
15269 70 1
15270 38 1
15270 62 1
15271 26 1
15272 70 1
15273 61 1
15274 4 1
15275 51 1
15276 52 1
15276 65 1
15276 70 1
15277 52 1
15278 62 1
15279 41 1
15280 52 1
15281 38 1
15282 49 1
15283 18 1
15284 70 2
15285 31 1
15285 58 1
15286 34 1
15287 6 1
15288 9 1
15289 4 1
15290 26 1
15291 7 1
15291 59 1
15292 18 1
15293 63 1
15294 45 1
15294 54 1
15295 12 2
15296 55 1
15296 65 1
15297 38 1
15297 68 1
15298 45 2
15299 54 1
15300 43 1
15301 20 1
15302 40 1
15302 70 1
15303 59 1
15303 70 1
15304 70 1
15305 25 1
15306 59 1
15307 48 1
15308 70 1
15309 52 1
15310 70 1
15311 24 1
15312 59 1
15313 59 1
15314 4 1
15315 52 1
15316 70 1
15317 62 1
15318 43 1
15319 52 1
15320 30 1
15321 45 1
15322 43 1
15323 9 1
15323 52 1
15323 70 1
15324 40 1
15325 70 1
15326 18 1
15326 70 1
15327 62 1
15328 51 1
15329 45 1
15329 70 1
15330 18 1
15330 45 1
15330 71 1
15331 70 1
15332 38 1
15332 52 1
15333 70 1
15334 70 1
15335 18 1
15336 52 1
15336 70 1
15337 68 1
15338 45 1
15339 52 1
15340 71 1
15341 23 1
15342 28 1
15343 34 1
15344 70 1
15345 32 1
15346 70 1
15347 62 1
15348 6 1
15349 70 1
15350 52 1
15351 54 1
15352 38 1
15353 6 1
15354 48 1
15354 51 2
15355 12 1
15355 51 1
15355 54 1
15356 55 1
15357 71 1
15358 70 1
15359 26 1
15360 38 1
15361 60 1
15362 55 1
15363 58 1
15363 65 1
15364 25 1
15365 62 1
15366 49 1
15367 13 2
15368 58 1
15368 71 1
15369 45 1
15370 30 1
15370 52 1
15371 71 1
15372 4 1
15372 71 1
15373 4 1
15374 52 1
15375 71 1
15376 20 1
15377 62 1
15377 63 1
15377 70 1
15378 38 1
15378 70 1
15379 4 1
15379 38 1
15380 68 1
15381 38 1
15382 54 1
15383 70 1
15384 51 1
15385 18 1
15386 25 1
15387 45 1
15388 18 1
15389 45 1
15390 30 1
15391 71 1
15392 71 1
15393 2 1
15393 54 1
15394 70 1
15395 25 1
15396 71 1
15397 70 1
15398 54 1
15399 4 1
15400 38 1
15401 52 1
15402 10 1
15402 61 1
15403 38 1
15404 4 1
15404 34 1
15405 70 1
15406 48 1
15407 58 1
15409 61 1
15410 45 1
15411 25 1
15412 59 1
15413 34 1
15413 62 1
15414 70 1
15415 4 1
15416 52 1
15417 71 1
15418 4 1
15418 30 2
15418 52 1
15419 62 1
15420 52 1
15421 63 1
15422 23 1
15423 70 1
15424 61 1
15425 62 1
15426 10 1
15426 30 1
15427 70 1
15428 70 1
15429 60 1
15430 54 1
15431 71 1
15432 6 1
15432 70 1
15433 70 2
15434 45 1
15435 68 1
15436 26 1
15437 30 1
15438 45 1
15438 68 1
15439 4 1
15440 52 1
15441 25 1
15442 54 1
15443 34 1
15443 52 1
15444 30 1
15445 18 1
15446 23 1
15446 62 1
15447 52 1
15448 38 1
15449 51 1
15450 38 1
15451 54 1
15452 70 1
15453 33 1
15453 45 1
15454 52 1
15455 52 1
15455 55 1
15456 48 1
15457 43 1
15457 60 1
15457 71 1
15458 58 1
15459 6 1
15459 48 1
15460 70 1
15461 30 1
15462 49 1
15463 70 1
15464 25 1
15465 62 1
15466 52 1
15467 52 1
15467 71 1
15468 51 1
15469 45 1
15470 49 1
15471 20 1
15472 70 1
15473 14 1
15474 62 1
15474 70 1
15475 70 1
15476 62 1
15477 62 1
15478 70 1
15479 31 1
15480 43 1
15480 48 1
15481 58 1
15482 31 1
15482 48 2
15483 70 1
15484 65 1
15485 34 1
15486 20 1
15487 70 1
15488 48 1
15489 45 1
15490 34 1
15491 52 1
15492 13 1
15493 52 1
15493 70 1
15494 71 2
15495 20 1
15496 58 1
15496 70 1
15497 60 1
15498 59 1
15499 60 1
15500 70 1
15501 68 1
15502 24 1
15503 38 1
15504 45 1
15505 51 1
15506 13 1
15507 25 1
15507 62 1
15508 62 2
15509 70 3
15511 62 1
15512 52 1
15513 30 1
15514 48 1
15515 30 1
15516 38 1
15517 70 1
15518 70 1
15519 48 1
15520 58 1
15521 18 1
15522 58 1
15523 56 1
15524 46 1
15525 70 1
15526 49 1
15527 52 1
15528 62 1
15529 2 1
15530 54 1
15531 4 1
15532 13 1
15532 39 1
15532 70 1
15533 68 1
15534 57 1
15534 70 1
15535 43 1
15536 70 2
15537 12 1
15538 33 1
15539 48 1
15539 52 1
15540 70 1
15541 62 1
15542 13 1
15543 55 1
15543 70 1
15544 70 1
15545 65 1
15546 25 1
15547 37 1
15548 38 1
15549 71 1
15550 62 1
15550 71 1
15551 20 1
15552 70 1
15553 62 1
15554 71 1
15555 70 1
15556 9 1
15556 45 1
15556 70 1
15557 7 1
15558 33 1
15559 45 1
15559 52 2
15559 62 1
15560 62 1
15561 63 1
15562 52 1
15563 25 1
15564 43 1
15565 4 1
15566 70 1
15567 70 1
15568 49 1
15568 61 1
15569 51 1
15570 54 1
15571 12 1
15571 51 1
15572 45 1
15573 58 1
15575 57 1
15576 4 1
15576 70 1
15577 58 1
15578 70 1
15578 71 1
15579 54 1
15580 5 1
15581 54 1
15582 20 1
15582 70 1
15583 52 1
15584 71 1
15585 48 1
15586 58 1
15587 21 1
15587 40 1
15587 70 1
15588 55 1
15589 4 1
15590 68 1
15591 70 1
15592 54 1
15593 68 1
15594 33 1
15594 61 1
15594 71 1
15595 70 1
15596 68 1
15597 60 1
15598 31 1
15599 58 1
15600 13 1
15601 70 1
15602 70 1
15603 30 1
15604 38 1
15605 25 1
15606 70 1
15607 34 1
15608 70 2
15609 20 1
15610 4 1
15611 40 1
15612 70 1
15613 31 1
15614 52 1
15615 24 1
15616 60 1
15617 70 1
15618 70 1
15619 13 1
15620 54 1
15621 20 1
15621 70 1
15622 45 1
15622 48 1
15622 70 1
15623 20 1
15624 48 1
15625 71 1
15626 9 1
15627 70 1
15628 6 1
15629 30 1
15630 71 1
15631 1 1
15632 25 1
15633 51 1
15634 54 1
15635 54 1
15636 30 1
15636 46 1
15637 10 1
15637 62 1
15637 71 1
15638 71 1
15639 71 1
15640 52 1
15640 68 1
15641 45 1
15642 6 1
15643 54 1
15645 13 4
15645 32 2
15645 39 1
15645 48 1
15645 54 1
15645 62 1
15646 4 1
15647 33 1
15647 55 1
15648 60 1
15649 54 1
15650 70 1
15651 70 1
15652 45 1
15652 70 1
15653 52 1
15654 65 1
15655 60 1
15656 70 1
15657 40 1
15657 43 2
15658 6 2
15659 68 1
15660 55 1
15661 25 1
15661 54 1
15662 32 1
15663 2 1
15664 71 1
15665 38 1
15666 54 1
15667 20 1
15668 52 1
15669 38 1
15669 45 1
15670 52 1
15671 70 1
15672 65 1
15673 62 1
15674 70 1
15675 52 1
15676 38 1
15677 54 1
15678 71 1
15679 12 1
15679 13 1
15679 18 1
15679 30 1
15679 32 1
15679 34 1
15679 38 4
15679 41 1
15679 43 3
15679 48 3
15679 51 2
15679 55 2
15679 62 3
15679 70 2
15679 71 1
15680 38 1
15681 68 1
15681 71 1
15682 24 1
15683 51 1
15684 25 1
15685 70 1
15686 34 1
15687 38 1
15688 70 1
15689 9 1
15690 38 1
15691 12 1
15692 71 1
15693 10 1
15693 13 1
15694 52 1
15695 52 1
15696 54 1
15696 58 1
15697 58 1
15698 6 1
15699 44 1
15700 62 1
15701 4 1
15702 54 1
15703 42 1
15704 49 1
15705 70 1
15706 38 1
15706 44 1
15707 54 1
15708 52 1
15709 38 1
15710 20 1
15711 54 1
15712 51 1
15713 52 1
15714 52 1
15715 2 1
15715 61 1
15716 54 1
15717 51 1
15718 54 1
15720 51 1
15721 24 1
15722 62 1
15723 20 1
15724 42 1
15725 2 1
15725 71 1
15726 13 1
15727 44 1
15728 48 1
15728 70 1
15729 30 1
15730 52 1
15730 55 1
15731 70 1
15732 38 1
15733 5 1
15734 58 1
15735 62 1
15735 70 2
15736 62 1
15737 52 1
15738 14 1
15739 38 1
15740 52 1
15741 70 1
15742 24 1
15743 45 1
15744 12 1
15744 52 1
15745 40 1
15746 59 1
15747 4 1
15748 51 1
15749 31 1
15749 71 1
15750 43 1
15751 61 1
15752 60 1
15753 71 1
15754 30 1
15754 51 1
15755 68 1
15756 38 1
15757 70 1
15758 45 1
15759 34 1
15760 70 1
15761 38 1
15762 70 1
15763 2 1
15763 51 1
15763 71 1
15764 5 1
15765 57 1
15766 38 1
15767 45 1
15768 45 1
15769 70 1
15770 32 1
15770 52 1
15770 70 2
15771 2 1
15772 54 1
15773 70 1
15774 51 1
15775 45 1
15775 70 1
15776 52 1
15777 60 1
15778 30 1
15779 70 1
15780 12 1
15781 54 1
15781 70 1
15782 38 1
15783 4 1
15784 12 1
15785 32 1
15785 54 1
15786 59 1
15787 61 2
15787 65 2
15788 54 1
15789 70 1
15790 54 1
15790 63 1
15791 43 1
15791 48 1
15792 30 1
15792 61 1
15793 43 1
15794 51 1
15795 54 1
15796 45 1
15797 68 1
15798 52 1
15799 30 1
15800 31 1
15801 48 1
15801 62 1
15802 24 1
15803 68 1
15804 25 1
15805 70 1
15806 38 1
15807 49 1
15807 54 1
15808 51 1
15809 25 1
15810 71 1
15811 70 1
15812 62 1
15813 20 1
15814 62 1
15814 70 2
15815 68 1
15816 38 1
15817 70 1
15818 70 1
15819 34 1
15820 52 1
15820 70 1
15821 70 1
15823 59 1
15824 51 1
15824 68 1
15824 70 2
15825 48 2
15825 70 1
15826 30 1
15827 34 1
15828 52 1
15829 20 2
15830 57 1
15831 45 1
15832 54 1
15833 32 1
15833 54 1
15834 7 1
15834 24 1
15836 47 1
15837 54 1
15838 20 2
15839 44 1
15840 59 1
15841 70 1
15842 70 1
15843 32 1
15843 65 1
15844 70 1
15845 52 1
15845 70 1
15846 65 1
15847 61 1
15848 51 1
15849 30 1
15850 51 1
15851 70 1
15852 52 1
15853 61 1
15854 55 1
15855 70 1
15856 34 1
15857 38 1
15857 54 1
15858 38 1
15859 43 1
15860 30 1
15861 25 1
15862 39 1
15863 30 1
15864 58 1
15865 45 1
15866 9 1
15866 59 1
15867 41 1
15867 45 1
15867 52 1
15868 25 1
15869 70 1
15870 4 1
15871 30 1
15872 61 1
15873 51 1
15874 21 1
15875 38 1
15876 4 1
15877 54 1
15877 70 1
15878 70 1
15879 20 1
15879 70 1
15880 52 1
15881 32 1
15882 25 1
15883 71 1
15884 43 1
15884 52 1
15885 9 1
15886 68 1
15887 54 1
15888 38 1
15888 52 1
15889 54 1
15890 70 1
15891 51 1
15892 70 1
15893 62 1
15894 51 1
15895 43 1
15896 43 1
15896 61 1
15897 54 1
15898 62 1
15898 71 1
15899 70 1
15900 62 1
15901 20 1
15901 52 1
15902 52 1
15903 45 1
15903 65 1
15904 34 1
15904 68 1
15905 55 1
15905 65 2
15906 62 1
15907 62 1
15908 70 1
15909 20 1
15910 54 1
15911 70 1
15912 45 1
15915 25 1
15916 20 1
15917 62 1
15918 52 1
15919 58 1
15919 62 1
15920 68 1
15921 34 1
15922 13 1
15922 62 1
15924 17 1
15925 70 1
15926 68 1
15927 30 1
15927 51 1
15927 65 1
15928 71 1
15929 52 1
15930 62 1
15931 38 1
15932 65 1
15933 51 1
15934 14 1
15935 71 1
15936 62 1
15937 70 1
15938 70 1
15939 71 2
15940 25 1
15941 25 1
15942 12 1
15943 70 1
15944 9 1
15944 38 1
15944 52 1
15944 61 1
15945 9 1
15946 71 1
15947 60 1
15948 49 1
15949 70 1
15950 70 1
15951 70 1
15952 52 1
15953 70 1
15954 69 1
15955 33 1
15956 52 1
15957 4 1
15958 25 1
15959 52 1
15960 30 1
15961 18 2
15961 48 1
15962 30 1
15962 70 1
15963 4 1
15964 31 1
15964 34 1
15964 59 1
15965 70 1
15966 12 1
15967 51 1
15968 70 1
15969 70 1
15970 13 1
15970 14 1
15970 17 1
15970 38 1
15970 45 1
15970 52 1
15971 58 1
15972 70 1
15973 43 1
15974 70 1
15975 4 1
15976 61 1
15977 38 1
15978 54 1
15978 70 1
15979 71 1
15980 54 1
15981 65 1
15981 70 1
15982 52 1
15983 38 1
15984 2 1
15984 58 1
15985 52 1
15986 9 1
15987 6 1
15988 70 1
15989 4 1
15989 25 1
15990 52 1
15991 52 1
15992 25 1
15993 40 1
15994 70 2
15995 13 1
15995 45 1
15996 12 1
15996 63 1
15997 18 1
15998 65 1
15999 24 1
15999 34 1
15999 54 1
15999 61 1
16000 48 1
16001 45 1
16001 70 1
16001 71 1
16002 71 1
16003 12 1
16004 20 1
16004 51 1
16004 62 1
16005 24 1
16006 62 1
16007 68 1
16008 48 1
16008 62 1
16009 32 1
16009 62 1
16009 70 1
16010 51 1
16011 38 1
16011 62 1
16012 23 1
16012 54 1
16012 70 1
16013 34 1
16014 70 1
16015 43 1
16016 52 1
16017 54 1
16018 33 1
16019 55 1
16020 42 1
16021 58 1
16023 70 1
16024 71 1
16025 20 1
16025 46 1
16026 31 1
16027 45 1
16028 54 1
16029 52 1
16030 39 1
16031 43 1
16032 70 2
16033 25 1
16033 55 1
16034 48 1
16035 13 1
16035 70 1
16036 13 1
16036 71 1
16038 52 1
16039 62 1
16040 70 2
16041 62 1
16042 18 1
16043 70 1
16044 25 1
16045 47 1
16045 51 1
16046 54 1
16046 62 1
16047 38 2
16047 70 1
16048 9 1
16049 54 1
16050 28 1
16052 43 1
16053 62 1
16054 25 1
16055 38 1
16056 52 1
16057 40 1
16057 70 1
16058 70 1
16059 58 1
16060 4 1
16061 30 1
16061 51 1
16062 45 1
16062 62 1
16063 54 1
16063 60 1
16064 70 1
16065 62 1
16066 54 1
16067 13 1
16067 54 1
16067 60 1
16067 67 1
16067 71 1
16068 51 1
16069 30 1
16070 6 1
16070 21 1
16071 13 1
16072 14 1
16073 62 1
16074 4 1
16075 48 1
16076 71 1
16077 62 1
16078 45 1
16079 40 1
16079 54 1
16079 71 1
16080 70 1
16081 40 1
16082 62 1
16083 62 1
16084 32 1
16085 20 1
16086 51 1
16087 70 1
16088 59 1
16089 61 1
16089 70 1
16090 45 1
16091 70 1
16092 38 1
16093 13 1
16094 48 1
16095 51 1
16096 69 1
16097 34 1
16097 38 1
16098 62 1
16099 52 1
16100 51 1
16102 70 1
16103 52 1
16104 54 1
16105 33 1
16105 60 1
16106 70 1
16107 70 1
16108 71 1
16109 49 1
16110 45 1
16111 4 1
16111 70 1
16112 38 1
16113 49 1
16113 70 1
16114 38 1
16114 48 1
16115 37 1
16116 13 1
16116 52 1
16117 62 1
16118 51 1
16120 25 1
16120 45 1
16121 70 1
16122 24 1
16123 67 1
16124 70 1
16124 71 1
16125 60 1
16126 62 1
16127 18 1
16128 31 1
16129 60 1
16130 38 1
16131 38 1
16131 52 1
16132 70 1
16133 70 1
16134 52 1
16135 70 1
16136 62 1
16137 1 1
16138 24 1
16139 32 1
16139 40 1
16140 38 1
16141 70 2
16142 60 1
16143 52 1
16144 55 1
16145 48 1
16146 55 1
16147 48 1
16148 2 1
16148 4 1
16148 6 1
16148 9 2
16148 10 2
16148 12 1
16148 13 1
16148 18 2
16148 20 3
16148 21 1
16148 24 2
16148 30 5
16148 31 2
16148 32 3
16148 38 3
16148 43 4
16148 45 3
16148 46 2
16148 52 2
16148 54 1
16148 58 4
16148 59 2
16148 60 2
16148 61 1
16148 62 1
16148 68 4
16148 70 4
16148 71 3
16149 49 1
16150 38 1
16151 38 1
16151 62 1
16153 62 1
16154 46 1
16155 54 1
16156 54 1
16157 30 1
16157 38 1
16157 52 1
16158 55 1
16158 71 1
16159 30 1
16160 25 1
16161 49 1
16162 49 1
16163 32 1
16163 70 1
16165 6 1
16166 62 1
16167 21 2
16168 45 1
16169 38 1
16170 6 1
16171 59 1
16172 54 1
16174 30 1
16175 58 1
16176 51 1
16177 12 1
16177 70 1
16178 54 1
16179 70 1
16180 52 1
16180 54 1
16181 52 1
16181 62 1
16182 32 1
16183 62 1
16184 49 1
16184 55 1
16185 20 1
16186 38 1
16187 41 1
16188 70 1
16189 52 1
16190 30 1
16192 55 1
16193 38 1
16194 71 1
16195 25 1
16196 38 1
16197 4 1
16198 70 1
16199 62 1
16200 40 1
16201 65 1
16202 30 1
16203 52 1
16204 10 1
16204 54 1
16205 63 1
16206 62 1
16207 4 1
16208 20 1
16209 61 1
16210 30 1
16211 70 1
16212 54 1
16213 4 1
16214 52 1
16214 70 1
16215 25 1
16216 70 1
16217 9 1
16218 61 1
16219 18 1
16220 30 1
16221 6 1
16222 48 1
16222 49 1
16223 70 1
16224 24 1
16224 51 1
16225 43 1
16226 60 1
16227 45 1
16228 9 1
16229 60 1
16230 24 1
16231 14 1
16232 62 1
16233 55 1
16234 49 1
16235 34 1
16236 52 1
16237 55 1
16238 70 1
16239 13 1
16239 70 1
16240 41 1
16240 60 1
16241 62 1
16241 70 2
16242 25 1
16243 48 1
16244 2 1
16245 70 1
16246 70 1
16247 60 1
16248 52 1
16249 45 1
16250 71 1
16251 21 1
16252 54 1
16253 48 1
16254 9 1
16255 54 1
16256 30 1
16257 62 1
16258 39 1
16259 49 1
16260 6 1
16261 38 1
16262 59 1
16263 43 1
16264 30 1
16265 48 1
16266 71 1
16267 54 1
16268 20 1
16269 51 1
16270 71 1
16271 61 1
16272 62 1
16273 52 1
16274 34 1
16275 54 1
16276 2 1
16276 70 1
16277 52 1
16278 71 1
16279 30 1
16280 70 1
16281 70 1
16282 54 1
16283 54 1
16284 25 1
16285 62 1
16286 13 1
16287 62 1
16288 71 1
16289 70 1
16290 13 1
16291 52 1
16292 70 1
16293 34 1
16294 54 1
16295 38 1
16296 38 1
16297 62 1
16298 62 1
16299 45 1
16300 38 1
16301 54 1
16302 49 1
16302 52 1
16303 52 1
16304 71 1
16305 70 1
16306 62 1
16307 62 1
16308 49 1
16309 24 1
16310 40 2
16310 68 1
16311 38 1
16312 62 1
16313 20 1
16314 43 1
16315 70 1
16316 48 1
16317 48 1
16318 70 1
16319 62 1
16320 51 1
16321 45 1
16322 25 1
16323 70 1
16324 43 1
16324 68 1
16325 62 1
16326 25 1
16327 70 1
16328 45 1
16328 70 1
16329 71 1
16330 70 1
16331 44 1
16332 45 1
16333 45 1
16334 25 1
16335 55 1
16336 70 1
16337 49 1
16337 60 1
16337 65 1
16338 52 1
16339 52 1
16340 52 1
16341 54 1
16342 25 1
16343 71 1
16344 32 1
16345 32 1
16346 70 2
16347 71 1
16348 62 1
16349 18 1
16350 52 1
16351 70 1
16352 38 1
16353 46 1
16354 70 1
16355 51 1
16356 54 1
16357 41 1
16358 18 1
16359 44 1
16360 38 1
16361 23 1
16362 34 1
16362 70 1
16363 54 1
16364 68 1
16365 39 1
16366 42 1
16367 2 1
16368 52 1
16369 70 1
16370 23 1
16371 17 1
16372 61 1
16373 52 1
16374 45 1
16374 71 1
16375 31 1
16376 12 1
16376 38 1
16377 45 1
16377 52 1
16377 55 1
16378 7 1
16379 60 1
16380 62 1
16381 54 1
16382 9 1
16382 65 1
16384 68 1
16385 20 1
16386 68 1
16387 14 1
16388 5 1
16389 70 1
16390 70 1
16391 58 1
16392 42 1
16394 30 1
16395 71 1
16396 38 1
16397 25 1
16398 30 1
16399 23 1
16400 24 1
16400 39 1
16401 52 1
16401 54 1
16401 55 2
16402 24 1
16402 45 2
16402 58 1
16403 51 1
16403 52 1
16403 70 2
16404 61 1
16405 54 1
16406 52 1
16407 18 1
16408 51 1
16409 52 1
16410 70 1
16411 18 1
16412 54 1
16412 58 1
16413 51 1
16414 51 1
16415 38 1
16416 52 1
16417 38 1
16418 20 1
16419 45 1
16420 20 1
16421 70 1
16422 4 1
16422 20 1
16422 24 1
16422 26 1
16422 32 1
16422 38 4
16422 43 1
16422 51 1
16422 54 1
16422 62 1
16422 70 10
16422 71 2
16423 52 1
16424 61 1
16425 20 1
16426 18 1
16427 52 1
16427 58 1
16428 48 1
16429 45 1
16430 60 1
16431 70 1
16432 30 1
16433 57 1
16433 70 1
16434 32 1
16435 60 1
16436 59 1
16437 58 1
16438 4 1
16438 65 1
16439 68 1
16440 62 1
16441 71 1
16442 4 1
16442 68 1
16443 43 1
16444 9 1
16445 45 1
16446 13 1
16447 70 1
16448 70 1
16449 70 1
16450 70 1
16451 31 1
16452 13 1
16453 2 1
16454 68 1
16455 52 1
16456 9 1
16457 38 1
16457 62 1
16458 10 1
16459 62 1
16460 30 1
16461 58 1
16461 70 1
16462 70 2
16463 54 1
16464 49 1
16464 70 1
16465 70 1
16466 34 1
16467 62 1
16468 70 1
16469 45 1
16470 55 1
16471 60 1
16472 13 1
16472 68 1
16473 45 1
16473 52 1
16475 51 1
16476 31 1
16477 18 1
16479 54 1
16480 71 1
16481 52 1
16482 32 1
16482 45 1
16483 20 1
16483 43 1
16483 70 1
16484 49 1
16484 68 1
16484 70 1
16485 4 1
16486 71 1
16487 9 1
16487 52 1
16488 60 1
16489 20 1
16490 54 2
16491 70 2
16492 49 1
16493 60 1
16494 70 1
16495 52 1
16495 65 1
16496 13 1
16497 44 1
16498 12 1
16498 31 1
16498 43 1
16498 45 1
16498 62 1
16498 70 1
16499 70 1
16501 58 1
16502 52 1
16503 43 1
16504 71 1
16505 55 1
16505 65 1
16506 34 1
16506 45 1
16506 62 1
16507 39 1
16508 62 1
16509 12 1
16510 61 1
16511 45 1
16512 68 1
16513 55 1
16514 58 1
16515 70 1
16516 71 1
16517 10 1
16518 17 1
16519 70 1
16520 61 1
16521 70 1
16522 62 1
16523 30 1
16523 54 1
16524 6 1
16525 51 1
16525 62 1
16526 70 1
16527 30 1
16527 52 1
16528 70 1
16529 38 1
16530 70 1
16531 70 1
16532 25 1
16533 70 1
16534 48 1
16535 62 1
16536 52 1
16537 46 1
16538 52 1
16539 10 1
16539 62 1
16540 20 2
16541 51 1
16542 18 1
16543 33 1
16544 70 1
16545 2 1
16546 68 1
16547 70 1
16548 54 1
16549 52 1
16550 6 1
16551 52 1
16552 32 1
16553 54 1
16554 58 1
16554 71 1
16555 70 1
16556 34 1
16556 54 1
16557 48 1
16558 70 1
16559 4 1
16560 72 1
16561 6 1
16562 4 1
16562 33 1
16562 40 1
16562 54 1
16563 70 1
16564 70 1
16566 62 1
16566 70 1
16567 38 1
16567 70 1
16568 62 1
16569 62 1
16570 62 1
16571 20 1
16572 71 1
16573 48 1
16574 54 1
16575 32 1
16576 71 1
16577 59 1
16577 70 1
16578 41 1
16579 65 1
16580 4 1
16580 24 1
16580 45 1
16580 52 1
16581 45 1
16582 33 1
16583 54 1
16584 48 1
16585 20 1
16586 40 1
16586 43 1
16586 52 1
16586 54 1
16586 62 1
16587 7 1
16588 70 1
16589 52 1
16590 32 1
16591 52 1
16592 4 1
16593 62 1
16593 70 1
16594 13 1
16594 30 1
16595 70 1
16596 70 1
16597 71 1
16598 54 1
16599 51 1
16600 70 1
16601 62 1
16602 31 1
16602 71 1
16603 14 1
16604 40 1
16605 40 1
16606 9 1
16607 45 1
16608 70 1
16609 45 1
16610 68 1
16611 41 1
16612 70 2
16613 51 1
16613 60 1
16614 51 1
16615 51 1
16616 4 1
16617 63 1
16618 52 1
16618 63 1
16618 68 1
16619 52 1
16620 20 1
16621 2 1
16622 54 1
16623 54 1
16624 54 1
16625 52 1
16625 54 1
16626 38 1
16626 46 1
16627 65 1
16628 51 1
16629 62 1
16630 40 1
16631 60 1
16632 70 1
16633 25 1
16634 39 1
16635 70 1
16636 58 1
16637 70 1
16638 70 1
16639 54 1
16639 70 1
16640 26 1
16641 38 1
16642 18 1
16642 38 1
16643 65 1
16643 68 1
16644 70 1
16645 51 1
16646 39 1
16647 70 1
16648 48 1
16649 54 1
16650 54 1
16651 62 1
16652 30 1
16653 9 1
16653 61 1
16654 24 1
16655 70 1
16656 71 1
16657 61 1
16657 62 1
16658 46 1
16659 2 1
16660 17 1
16660 52 1
16661 40 1
16662 38 1
16663 25 1
16663 71 1
16664 61 1
16665 44 1
16666 13 1
16667 40 1
16668 38 2
16668 60 1
16669 51 1
16670 43 1
16671 2 1
16671 70 1
16671 71 1
16672 30 1
16672 70 1
16673 49 1
16674 48 1
16674 68 1
16675 5 1
16676 32 1
16677 61 1
16678 54 1
16679 71 1
16680 48 1
16680 70 1
16681 25 1
16682 34 1
16683 6 1
16684 24 1
16685 60 1
16686 5 1
16686 58 1
16687 38 1
16688 45 1
16689 60 1
16690 70 1
16691 59 1
16692 25 1
16693 38 1
16694 4 1
16695 51 1
16696 23 1
16696 38 1
16697 52 1
16698 25 1
16698 38 1
16699 33 1
16700 13 1
16700 45 1
16701 70 1
16702 52 1
16703 71 1
16704 71 1
16705 9 1
16706 59 1
16707 60 1
16708 65 1
16709 68 1
16710 62 1
16711 20 1
16711 70 1
16712 25 1
16712 51 1
16712 71 1
16713 62 1
16714 43 1
16715 70 1
16716 13 1
16717 62 1
16718 62 1
16719 41 1
16720 57 1
16720 70 1
16721 44 1
16722 59 1
16723 70 1
16724 52 1
16725 32 2
16726 52 1
16727 20 1
16728 70 1
16729 49 1
16730 12 1
16731 70 1
16732 70 1
16733 70 1
16734 54 1
16735 71 1
16736 70 1
16737 4 1
16738 45 1
16739 13 1
16740 62 1
16741 38 1
16742 52 2
16743 55 1
16744 30 1
16744 51 2
16745 59 1
16746 20 1
16746 70 1
16747 41 1
16748 52 1
16749 68 1
16749 70 1
16750 38 1
16751 20 1
16752 62 1
16753 45 1
16754 70 1
16755 2 1
16756 13 1
16757 52 1
16758 52 1
16759 51 1
16760 70 1
16761 70 1
16762 38 1
16762 58 1
16763 38 1
16763 63 1
16764 55 1
16765 24 1
16765 70 1
16765 71 1
16766 70 1
16767 38 1
16768 25 1
16768 65 1
16769 70 1
16770 48 1
16771 54 1
16772 38 1
16773 52 1
16774 10 1
16774 32 1
16774 52 1
16775 71 1
16776 5 1
16777 43 1
16778 70 1
16779 70 1
16780 70 1
16781 38 1
16782 70 1
16783 43 1
16785 38 1
16786 24 1
16787 54 1
16788 13 1
16789 70 1
16790 33 1
16791 20 1
16792 49 1
16792 70 2
16793 70 1
16794 43 1
16795 32 1
16796 58 1
16797 68 1
16797 70 1
16798 62 1
16799 70 1
16800 39 1
16801 70 2
16802 49 1
16802 51 1
16803 25 1
16804 71 1
16805 40 1
16806 13 1
16807 52 1
16808 43 1
16808 61 1
16809 48 1
16809 65 1
16810 70 1
16811 71 1
16812 32 1
16812 45 1
16812 70 2
16813 70 1
16814 52 1
16815 40 1
16816 65 1
16817 2 1
16818 55 1
16819 34 1
16820 38 1
16821 18 1
16821 32 1
16821 68 1
16822 65 1
16823 55 1
16824 54 1
16825 38 1
16826 38 1
16827 58 1
16828 24 1
16828 34 1
16829 20 1
16830 61 1
16831 54 1
16832 70 1
16833 38 1
16834 51 1
16835 58 1
16835 62 1
16836 4 1
16836 30 1
16838 13 1
16838 52 1
16839 52 1
16840 62 1
16841 4 1
16841 54 1
16842 4 1
16843 21 1
16844 21 1
16845 52 1
16847 60 1
16848 51 1
16849 33 1
16850 58 1
16851 13 1
16852 25 1
16853 30 1
16853 45 1
16853 49 1
16853 51 1
16853 52 1
16853 62 1
16853 71 1
16854 65 1
16855 13 1
16856 32 1
16857 70 1
16858 71 1
16859 62 1
16860 4 1
16861 62 1
16862 71 1
16863 54 1
16865 13 1
16866 57 1
16867 58 1
16868 21 1
16868 54 1
16869 54 1
16870 62 1
16871 70 1
16872 62 1
16872 70 1
16873 60 1
16874 59 1
16874 68 1
16875 38 1
16876 59 1
16877 68 1
16878 70 1
16879 70 1
16880 48 1
16880 68 1
16881 70 1
16882 70 1
16883 54 1
16884 9 1
16884 54 3
16885 38 1
16886 20 1
16886 54 1
16886 71 1
16887 61 1
16887 70 1
16888 62 1
16889 38 1
16889 40 1
16889 52 1
16890 52 1
16891 20 1
16892 58 1
16893 30 1
16894 70 1
16895 24 1
16896 71 1
16897 44 1
16898 32 1
16899 70 1
16900 13 1
16901 38 1
16902 48 1
16903 70 1
16904 65 1
16905 45 1
16905 52 1
16906 26 1
16907 52 1
16908 51 1
16908 70 1
16909 45 1
16910 45 1
16910 62 1
16911 70 1
16912 62 1
16913 70 1
16914 70 1
16915 49 1
16915 70 1
16916 52 1
16917 30 1
16918 70 1
16919 70 1
16920 58 1
16920 65 1
16921 70 2
16922 12 1
16923 31 1
16924 13 1
16925 3 1
16926 62 1
16927 30 1
16928 45 1
16929 25 1
16930 70 1
16931 70 1
16932 5 1
16933 38 1
16934 45 1
16934 70 1
16935 5 1
16936 9 1
16936 34 1
16937 62 1
16938 2 1
16939 52 1
16940 71 1
16941 54 1
16942 13 1
16942 45 1
16943 68 1
16944 43 2
16945 71 1
16946 2 1
16946 6 1
16946 13 1
16946 40 1
16946 43 2
16946 45 2
16946 51 2
16946 52 2
16946 54 2
16946 58 1
16946 61 1
16946 65 1
16947 60 1
16948 70 1
16949 13 1
16950 54 1
16951 2 1
16952 51 1
16953 13 1
16954 58 1
16955 63 1
16956 31 1
16957 30 2
16958 52 1
16958 71 1
16959 58 1
16960 45 1
16961 61 1
16961 70 1
16962 62 1
16963 5 1
16964 2 1
16964 26 1
16965 51 1
16966 12 1
16966 38 2
16967 71 1
16968 38 1
16969 70 1
16970 70 1
16971 38 1
16972 70 2
16973 51 1
16974 70 1
16975 25 1
16976 62 1
16977 54 1
16978 70 1
16979 18 1
16979 70 1
16980 46 1
16981 61 1
16982 38 1
16983 13 1
16984 62 1
16985 71 1
16986 52 1
16987 70 1
16988 4 1
16989 52 2
16990 13 1
16991 52 2
16992 18 1
16992 43 1
16992 63 1
16993 60 1
16994 13 1
16995 68 1
16996 70 1
16997 68 1
16998 51 1
16999 60 1
17000 70 1
17001 52 1
17001 70 1
17002 38 1
17003 39 1
17004 57 1
17004 71 1
17005 70 1
17007 59 1
17008 71 1
17009 52 1
17010 20 1
17011 23 1
17012 49 1
17013 68 1
17014 70 1
17015 45 1
17016 55 1
17017 54 1
17017 70 1
17018 9 1
17019 48 1
17020 40 1
17020 70 2
17021 23 1
17021 52 1
17021 55 1
17022 70 1
17023 68 1
17024 52 1
17025 54 1
17026 60 1
17027 52 1
17028 5 1
17028 12 1
17028 13 1
17028 18 2
17028 20 1
17028 24 1
17028 30 1
17028 31 1
17028 34 1
17028 38 2
17028 39 1
17028 45 1
17028 51 4
17028 60 2
17028 62 1
17028 63 1
17028 68 2
17028 70 3
17028 71 1
17029 34 1
17029 71 1
17030 62 1
17031 62 1
17032 71 1
17033 54 1
17034 51 2
17034 65 1
17034 71 1
17036 70 1
17037 59 1
17037 60 1
17038 70 1
17039 9 1
17039 38 1
17039 61 1
17039 68 1
17039 70 1
17040 9 1
17041 38 1
17041 63 1
17042 58 1
17042 70 1
17043 51 1
17044 45 1
17045 4 1
17046 9 1
17046 68 1
17047 23 1
17048 52 1
17048 62 1
17049 70 1
17050 41 1
17051 13 1
17051 62 1
17052 25 1
17053 48 1
17054 15 1
17054 54 1
17055 48 1
17056 70 1
17057 32 1
17058 71 1
17059 70 1
17060 20 1
17061 70 1
17062 62 1
17063 60 2
17064 65 1
17065 71 1
17066 48 1
17067 54 1
17068 62 1
17069 54 1
17070 30 1
17071 4 1
17071 52 1
17072 55 1
17073 70 1
17074 52 1
17075 13 1
17076 68 1
17076 71 1
17077 32 1
17077 55 1
17077 71 1
17078 57 1
17079 32 1
17080 55 1
17081 55 1
17082 32 1
17082 62 1
17083 70 1
17084 55 1
17085 30 2
17086 70 1
17087 70 1
17088 70 2
17090 70 1
17091 71 1
17092 52 1
17093 48 1
17094 30 1
17095 60 1
17096 5 1
17096 51 1
17096 52 1
17096 60 1
17096 70 1
17097 70 1
17098 38 1
17099 38 1
17100 70 1
17101 38 1
17102 51 1
17103 62 1
17104 18 1
17105 20 1
17106 70 1
17107 5 1
17108 70 1
17109 52 1
17110 54 1
17110 70 1
17111 70 1
17112 71 1
17113 65 1
17114 44 1
17115 48 1
17116 51 1
17117 51 1
17118 4 1
17119 12 1
17120 23 1
17120 52 1
17121 70 1
17122 68 1
17123 71 1
17124 4 1
17125 70 1
17126 51 1
17127 2 1
17128 34 1
17129 20 1
17130 49 1
17131 62 1
17132 38 1
17133 25 1
17134 4 1
17134 14 1
17134 20 1
17134 54 1
17134 61 1
17135 4 1
17136 20 1
17137 71 1
17138 62 1
17139 58 1
17140 4 1
17140 45 1
17141 54 1
17142 70 1
17143 70 1
17144 62 1
17145 71 1
17146 24 1
17147 32 1
17148 1 1
17149 62 1
17150 18 1
17150 49 1
17151 65 1
17152 24 1
17152 54 1
17153 38 1
17154 48 1
17154 68 1
17155 62 1
17156 54 1
17157 10 1
17158 34 2
17160 58 1
17161 62 1
17161 70 1
17161 71 1
17162 4 1
17163 62 1
17163 70 1
17164 61 1
17165 71 1
17166 52 1
17167 38 1
17168 52 1
17169 54 1
17170 70 1
17171 71 1
17172 62 1
17173 14 1
17174 68 1
17175 71 1
17176 4 1
17177 13 1
17178 2 1
17178 20 1
17179 57 1
17180 68 1
17181 43 1
17181 70 1
17182 70 1
17183 30 1
17183 70 1
17184 30 1
17185 62 1
17186 60 1
17187 52 1
17188 30 1
17189 45 1
17190 33 1
17191 48 1
17191 62 1
17191 71 1
17192 71 1
17193 45 1
17194 18 1
17195 48 1
17196 70 1
17197 54 1
17198 45 1
17199 4 2
17200 34 1
17201 70 1
17202 62 1
17203 70 1
17204 48 1
17205 33 1
17205 48 1
17206 70 1
17207 32 1
17208 25 1
17208 38 1
17208 43 1
17208 70 1
17209 70 1
17210 70 1
17211 51 1
17212 62 1
17213 57 1
17214 30 1
17215 3 1
17216 34 1
17217 42 1
17218 46 1
17218 54 1
17219 63 1
17220 17 1
17221 45 1
17222 15 1
17223 71 1
17224 59 1
17225 51 1
17226 52 1
17227 70 1
17228 58 1
17228 62 1
17229 45 1
17230 20 1
17231 70 1
17232 62 1
17233 52 1
17234 71 1
17235 52 1
17236 70 1
17237 12 1
17238 45 1
17239 70 1
17240 71 1
17241 62 1
17242 60 1
17243 31 1
17244 30 1
17245 38 1
17245 71 1
17246 28 1
17247 51 1
17248 70 1
17249 4 1
17250 38 1
17251 71 1
17252 70 1
17253 39 1
17254 70 1
17255 45 1
17255 70 1
17256 6 1
17256 51 1
17256 54 1
17257 52 1
17258 49 1
17259 71 1
17260 2 1
17261 14 1
17262 18 1
17262 30 1
17263 2 1
17264 71 1
17265 55 1
17266 61 1
17267 70 1
17268 32 1
17269 38 1
17270 49 1
17271 45 1
17272 20 1
17272 70 1
17273 60 2
17274 54 1
17275 70 1
17276 26 1
17277 68 1
17278 38 1
17279 20 1
17280 62 1
17281 48 1
17282 30 1
17283 9 1
17284 7 1
17285 18 1
17286 68 1
17287 55 1
17288 70 1
17289 48 1
17290 54 1
17291 62 1
17292 60 1
17293 62 1
17294 18 1
17295 12 1
17297 13 1
17297 54 1
17298 70 1
17299 70 1
17300 18 1
17300 21 1
17301 48 1
17302 61 1
17303 54 1
17304 51 1
17305 70 1
17306 70 1
17307 70 1
17308 62 1
17309 45 1
17309 58 1
17310 54 1
17310 65 1
17311 12 1
17311 65 1
17311 68 1
17312 45 1
17312 52 1
17313 30 1
17314 70 2
17315 58 1
17316 2 1
17317 38 1
17317 60 1
17318 31 1
17319 38 1
17320 52 1
17321 24 1
17321 62 1
17322 4 1
17323 46 1
17324 20 1
17324 48 1
17325 52 1
17326 45 1
17327 68 1
17328 71 1
17329 62 1
17330 60 1
17331 54 1
17332 65 1
17333 62 1
17334 4 1
17335 38 1
17336 51 1
17337 71 1
17338 70 1
17339 68 1
17340 54 1
17341 54 1
17342 25 1
17342 45 2
17343 30 1
17343 62 1
17345 30 1
17346 12 1
17346 20 1
17347 54 2
17348 20 1
17349 45 1
17350 32 1
17351 71 1
17352 13 1
17353 51 1
17354 52 1
17355 18 1
17355 39 1
17355 60 1
17355 70 1
17356 70 1
17356 71 1
17357 58 1
17358 58 1
17359 70 1
17360 65 1
17361 4 1
17362 60 1
17363 54 1
17364 44 1
17364 52 1
17365 70 1
17366 63 1
17366 70 1
17367 45 1
17368 62 1
17369 48 1
17370 30 1
17371 52 1
17372 60 1
17373 58 1
17374 71 1
17375 52 1
17376 54 1
17377 30 1
17377 51 1
17378 70 1
17379 70 1
17380 10 1
17381 70 1
17382 34 1
17382 62 1
17382 71 2
17383 62 1
17384 45 1
17385 4 1
17385 12 1
17385 54 1
17385 62 1
17385 70 2
17386 44 1
17387 70 1
17388 71 1
17389 60 1
17390 51 1
17391 70 1
17392 30 1
17393 70 1
17394 30 1
17394 41 1
17395 7 1
17396 51 2
17397 38 1
17397 58 1
17397 70 1
17398 70 1
17399 58 1
17400 52 1
17401 38 1
17402 48 1
17403 70 1
17404 70 1
17405 70 1
17406 30 1
17406 52 1
17407 6 1
17408 58 1
17409 30 1
17409 70 1
17410 13 1
17411 32 1
17412 68 1
17413 13 1
17413 68 1
17414 68 1
17415 52 1
17416 52 1
17417 12 1
17417 52 1
17418 55 1
17419 4 1
17420 70 1
17421 70 1
17422 20 1
17423 70 1
17424 54 1
17425 58 1
17426 23 1
17427 18 1
17428 58 1
17429 25 1
17430 70 1
17431 62 1
17432 38 1
17433 41 1
17433 54 1
17433 70 1
17434 70 1
17435 51 1
17436 2 1
17437 38 1
17438 71 1
17439 51 1
17440 20 1
17441 54 1
17441 62 1
17441 68 1
17442 52 1
17443 68 1
17444 54 1
17445 70 1
17446 45 1
17447 23 1
17448 70 1
17449 65 1
17449 70 1
17450 70 1
17451 45 1
17451 70 1
17452 38 1
17452 58 1
17452 70 1
17453 20 1
17454 71 1
17455 18 1
17456 54 1
17456 70 1
17457 60 2
17457 68 1
17458 70 1
17459 71 1
17460 58 1
17460 70 1
17461 70 1
17462 48 1
17463 30 1
17464 52 1
17466 48 1
17467 34 1
17468 43 1
17469 62 1
17470 43 1
17470 71 1
17471 71 1
17472 30 1
17473 6 1
17473 62 1
17474 70 1
17475 31 1
17476 25 1
17477 20 1
17478 70 1
17479 67 1
17480 43 1
17481 52 1
17482 25 1
17483 61 1
17484 70 1
17485 20 1
17486 52 1
17487 45 1
17488 32 1
17489 68 1
17490 12 1
17491 30 1
17491 52 1
17492 48 1
17493 41 1
17494 70 1
17495 68 1
17495 70 1
17496 45 1
17497 54 1
17498 58 1
17499 52 1
17500 70 1
17501 58 1
17502 38 1
17503 4 1
17503 25 1
17503 51 1
17503 61 1
17503 62 1
17504 49 1
17505 38 1
17505 51 1
17506 70 3
17507 32 1
17508 48 1
17509 51 1
17509 68 1
17510 61 1
17511 52 1
17512 62 2
17513 9 1
17513 55 1
17514 32 1
17515 45 1
17516 9 1
17517 52 1
17517 59 1
17518 2 1
17518 58 1
17518 70 1
17519 62 1
17520 70 1
17521 4 1
17522 70 1
17523 70 1
17524 43 1
17524 51 1
17524 62 1
17525 70 1
17526 70 1
17527 70 1
17528 52 1
17529 48 1
17530 51 1
17531 52 1
17532 52 1
17533 70 2
17534 70 1
17535 70 1
17536 32 1
17537 38 1
17537 62 1
17538 4 1
17539 30 1
17539 51 1
17540 30 1
17543 52 1
17544 70 2
17545 68 1
17546 54 1
17546 70 2
17546 71 1
17547 6 1
17547 10 2
17547 11 1
17547 13 2
17547 20 3
17547 25 1
17547 30 1
17547 31 1
17547 34 1
17547 39 1
17547 40 2
17547 49 1
17547 55 1
17547 58 5
17547 61 1
17548 70 1
17549 52 1
17550 51 1
17551 62 1
17552 20 1
17553 54 1
17554 10 1
17554 24 1
17554 38 1
17554 40 1
17554 63 1
17555 68 1
17556 32 1
17557 62 1
17558 61 1
17558 70 1
17559 52 1
17560 52 1
17561 70 1
17562 25 1
17562 54 1
17562 60 1
17563 41 1
17564 2 1
17564 52 1
17565 52 1
17566 71 1
17567 54 1
17567 62 1
17567 68 1
17568 4 1
17569 70 1
17570 45 1
17571 62 1
17572 51 1
17574 70 1
17575 52 1
17576 52 1
17577 21 1
17577 68 1
17578 61 1
17579 61 1
17580 62 1
17581 45 1
17582 54 1
17583 54 1
17584 68 1
17585 55 1
17586 70 1
17587 68 1
17589 71 1
17590 38 1
17591 45 1
17592 20 1
17593 65 1
17594 54 1
17594 70 1
17595 25 1
17596 38 1
17597 4 1
17598 62 1
17600 38 1
17601 9 1
17602 46 1
17603 48 1
17604 70 1
17605 58 1
17606 6 1
17607 32 1
17608 65 1
17609 70 1
17610 52 1
17611 52 1
17612 51 1
17613 48 1
17614 43 1
17615 57 1
17616 45 1
17617 34 1
17618 68 1
17619 49 1
17620 13 1
17621 71 1
17622 45 1
17622 71 1
17623 45 1
17624 62 1
17625 70 1
17626 18 1
17626 54 1
17627 24 1
17628 31 1
17629 31 1
17630 70 1
17631 62 1
17632 70 1
17633 47 1
17634 33 1
17635 33 1
17636 70 1
17637 70 1
17638 51 1
17638 62 1
17638 71 1
17639 17 1
17640 70 1
17641 54 1
17642 52 1
17643 61 1
17644 32 1
17645 58 1
17646 52 1
17647 45 1
17648 60 1
17649 62 1
17650 20 1
17651 52 1
17652 52 1
17653 70 1
17654 70 1
17655 20 1
17656 38 1
17657 58 1
17658 70 1
17659 49 1
17660 62 1
17661 40 1
17661 45 1
17661 68 1
17662 20 1
17663 49 1
17664 62 1
17665 70 1
17666 25 1
17666 70 1
17667 54 1
17668 24 1
17669 60 1
17670 38 1
17671 71 1
17672 31 1
17673 30 1
17674 51 1
17675 70 1
17676 51 1
17677 52 1
17678 9 1
17679 71 1
17680 71 1
17681 45 1
17682 48 1
17682 70 1
17683 30 1
17684 71 1
17685 71 1
17686 45 1
17687 38 1
17688 35 1
17689 30 1
17690 59 1
17691 49 1
17691 52 1
17692 62 1
17692 70 1
17693 70 1
17694 48 1
17695 4 2
17696 13 1
17697 38 1
17698 52 1
17699 33 1
17700 23 1
17701 38 1
17701 65 1
17702 45 1
17702 48 1
17703 68 1
17704 58 1
17705 51 1
17706 60 1
17707 52 1
17708 71 1
17709 58 1
17710 45 1
17711 38 1
17711 62 1
17712 70 1
17713 70 1
17714 51 1
17715 46 1
17715 48 1
17716 4 1
17717 25 1
17718 12 1
17718 42 1
17719 54 2
17719 68 1
17720 71 1
17721 38 1
17722 70 1
17723 61 1
17724 71 1
17725 61 1
17726 38 1
17727 20 1
17729 70 1
17730 52 1
17731 52 1
17731 56 1
17732 62 1
17733 45 1
17734 52 1
17735 38 1
17735 54 1
17736 48 1
17737 6 1
17738 49 1
17739 20 1
17740 33 1
17741 39 1
17741 70 1
17742 25 1
17743 38 1
17744 70 1
17747 38 1
17748 70 1
17749 70 1
17750 38 1
17750 51 1
17750 70 1
17751 45 1
17752 49 1
17752 52 1
17752 70 1
17753 59 1
17754 63 1
17756 51 1
17757 32 1
17758 30 1
17759 71 1
17760 46 1
17761 20 1
17761 34 1
17761 45 1
17761 49 1
17761 54 1
17761 71 1
17762 58 1
17763 58 1
17764 61 1
17765 70 1
17766 54 1
17767 70 1
17768 1 1
17769 68 1
17770 31 1
17771 1 1
17772 4 1
17773 51 1
17774 51 1
17775 54 1
17776 51 1
17777 18 1
17777 33 1
17777 40 1
17777 43 3
17777 49 1
17777 52 1
17777 54 1
17777 61 2
17777 62 2
17778 31 1
17778 70 1
17779 45 1
17780 33 2
17781 20 1
17782 25 1
17783 44 1
17784 12 1
17784 30 2
17784 33 1
17786 70 1
17787 40 1
17788 54 1
17788 55 1
17789 55 1
17790 70 1
17791 48 1
17792 2 1
17793 5 1
17793 51 1
17794 1 1
17794 65 1
17795 31 1
17796 45 1
17797 4 1
17798 58 1
17799 30 1
17800 70 1
17801 65 1
17802 17 1
17803 70 1
17804 32 1
17805 58 1
17806 62 1
17807 63 1
17808 63 1
17809 9 1
17810 30 1
17810 70 1
17811 52 1
17813 45 1
17814 2 1
17815 52 1
17816 43 1
17817 71 1
17818 25 1
17818 70 2
17819 55 1
17820 52 1
17821 31 1
17822 38 1
17823 49 1
17824 51 1
17824 60 1
17825 70 1
17826 12 1
17827 54 1
17828 62 1
17829 38 1
17829 49 1
17830 45 2
17831 3 1
17832 48 1
17833 70 1
17834 61 1
17835 2 1
17836 30 1
17837 71 1
17838 70 1
17839 70 1
17840 54 1
17841 62 1
17842 10 1
17842 52 1
17843 70 1
17844 38 1
17845 38 1
17845 48 1
17846 39 1
17846 62 1
17846 70 1
17847 70 1
17848 25 1
17849 52 1
17850 57 1
17851 70 1
17852 62 1
17852 70 1
17853 25 1
17854 24 1
17856 45 1
17857 51 1
17858 12 1
17858 68 1
17859 45 1
17859 61 1
17860 51 1
17861 25 1
17862 70 3
17863 70 2
17863 71 1
17864 55 1
17865 2 1
17865 70 1
17866 30 1
17866 45 1
17867 14 1
17867 51 1
17868 68 1
17869 32 1
17870 62 1
17871 62 1
17872 45 1
17873 70 1
17874 62 1
17875 51 1
17875 52 1
17876 68 1
17877 20 1
17877 70 1
17878 70 1
17879 43 1
17879 68 1
17880 55 1
17881 43 1
17882 4 1
17882 38 1
17883 52 1
17884 54 1
17885 25 1
17885 62 1
17886 52 1
17887 49 1
17888 5 1
17889 52 1
17890 52 1
17891 20 1
17891 60 1
17892 4 1
17892 9 1
17892 30 1
17892 41 1
17892 48 1
17892 49 1
17892 52 2
17892 70 2
17893 60 1
17893 70 3
17896 68 1
17897 70 1
17898 17 1
17899 30 1
17900 70 1
17901 39 1
17902 60 1
17903 51 1
17903 55 1
17904 30 1
17905 13 1
17906 70 1
17907 38 1
17908 54 1
17909 33 1
17909 38 1
17910 17 1
17911 52 1
17912 7 1
17912 70 1
17913 68 1
17914 70 1
17916 45 1
17916 54 1
17917 20 1
17918 49 1
17919 68 1
17920 62 1
17921 62 1
17922 62 1
17923 45 1
17923 71 1
17924 9 1
17925 41 1
17926 44 1
17926 70 1
17927 55 1
17928 4 1
17928 70 1
17929 70 1
17930 30 1
17931 13 1
17931 60 1
17931 68 1
17932 62 1
17933 52 1
17933 68 1
17934 71 1
17935 6 1
17936 65 1
17937 25 1
17938 70 1
17939 52 1
17940 20 1
17941 70 1
17942 70 1
17943 2 1
17944 38 1
17945 65 1
17946 62 1
17947 70 2
17948 54 1
17949 71 1
17950 45 1
17951 9 1
17952 23 1
17953 70 1
17954 54 1
17955 52 1
17956 70 1
17957 70 1
17958 70 1
17959 71 1
17960 4 1
17961 70 1
17963 24 1
17964 38 1
17965 62 1
17966 60 1
17967 20 1
17967 70 1
17968 70 1
17969 54 2
17970 4 1
17971 52 1
17972 52 1
17973 7 1
17973 45 1
17973 52 1
17974 62 1
17975 48 2
17976 70 1
17977 4 1
17978 32 1
17978 34 1
17978 42 1
17978 45 1
17978 48 1
17978 51 2
17978 54 1
17978 60 1
17978 65 1
17979 54 1
17980 54 1
17981 40 1
17981 52 1
17981 70 1
17982 48 1
17983 59 1
17984 54 1
17985 54 1
17986 20 1
17986 51 1
17986 71 1
17987 70 1
17988 38 1
17989 62 1
17990 4 1
17991 48 2
17992 70 2
17993 52 1
17994 12 1
17994 38 1
17995 34 1
17996 59 1
17997 52 1
17998 43 1
17999 51 1
18000 70 1
18001 13 1
18002 6 1
18003 52 1
18004 12 1
18004 38 1
18005 41 1
18006 38 1
18007 70 1
18008 13 1
18009 54 1
18010 10 1
18010 70 2
18010 71 1
18011 70 1
18012 38 1
18012 54 1
18013 51 1
18014 34 1
18015 54 1
18016 45 2
18017 71 1
18018 13 1
18018 20 1
18019 54 1
18019 62 1
18020 12 1
18020 30 1
18020 51 1
18020 54 1
18021 6 1
18022 32 1
18022 70 1
18023 45 1
18024 59 1
18024 65 1
18024 68 1
18025 70 1
18026 38 1
18027 55 1
18028 45 1
18029 32 1
18030 13 1
18031 54 1
18032 70 1
18033 70 1
18034 70 1
18035 70 1
18036 25 1
18037 52 1
18038 58 1
18039 70 1
18040 57 1
18041 54 1
18042 38 1
18042 44 1
18043 34 1
18044 71 1
18045 43 1
18045 55 1
18046 59 1
18047 14 1
18047 25 1
18047 38 1
18047 51 1
18047 52 1
18047 60 2
18047 70 1
18048 70 1
18049 70 1
18050 62 1
18050 70 1
18051 18 1
18051 61 1
18052 38 1
18052 71 1
18053 70 1
18054 61 1
18055 49 1
18056 24 1
18057 13 1
18057 52 1
18058 54 1
18059 52 1
18060 51 1
18061 26 1
18062 38 1
18062 70 1
18063 43 1
18064 2 1
18065 62 1
18066 58 1
18067 70 1
18068 70 1
18069 70 1
18070 71 1
18071 12 1
18071 17 1
18071 70 1
18072 25 1
18073 71 1
18074 71 1
18075 48 1
18076 25 1
18077 52 1
18078 12 1
18078 40 1
18079 6 1
18080 38 1
18081 62 1
18081 70 1
18082 70 1
18083 20 1
18084 9 1
18084 20 1
18084 70 2
18085 45 1
18087 62 1
18088 4 1
18088 70 1
18089 71 1
18090 24 1
18090 65 1
18090 68 1
18091 58 1
18092 59 1
18093 52 1
18094 62 1
18095 55 1
18095 71 1
18096 70 1
18097 25 1
18098 14 1
18098 38 2
18099 4 1
18100 70 2
18100 71 1
18101 70 1
18102 54 1
18103 33 1
18103 71 1
18104 30 1
18105 62 1
18106 24 1
18107 49 1
18108 38 1
18108 43 1
18109 61 1
18110 70 1
18111 62 1
18112 13 1
18113 25 1
18114 23 1
18114 70 2
18115 54 1
18116 70 1
18117 38 1
18118 70 1
18119 20 1
18120 38 1
18120 48 1
18120 68 1
18121 70 1
18122 70 1
18123 54 1
18124 5 1
18125 51 1
18125 54 1
18126 51 1
18127 14 1
18127 68 1
18127 70 1
18128 68 1
18129 70 1
18130 63 1
18130 70 1
18131 71 1
18132 34 1
18133 43 1
18134 58 1
18135 49 1
18136 25 1
18137 68 1
18138 45 1
18139 65 1
18140 70 1
18141 52 1
18141 70 1
18142 45 1
18142 68 1
18143 60 2
18144 30 1
18145 70 1
18145 71 1
18146 62 1
18147 62 1
18148 30 1
18149 54 1
18149 63 1
18150 70 1
18152 52 1
18153 33 1
18154 58 1
18155 38 1
18156 61 1
18157 24 1
18158 62 1
18159 71 1
18160 4 1
18161 52 1
18162 45 1
18163 32 1
18164 58 1
18165 54 1
18166 61 1
18167 38 1
18167 62 1
18168 70 1
18169 50 1
18170 25 1
18170 70 1
18171 43 1
18172 30 1
18173 70 1
18174 70 1
18175 52 1
18176 46 1
18176 65 1
18177 31 1
18177 52 1
18178 2 1
18179 41 1
18180 54 1
18180 58 1
18181 70 1
18182 52 1
18183 54 1
18184 43 1
18185 58 1
18186 70 1
18187 20 1
18188 51 1
18188 60 1
18189 7 1
18189 70 1
18190 60 1
18191 58 1
18192 2 1
18192 9 1
18193 58 1
18194 52 1
18195 45 1
18196 71 1
18197 18 1
18198 63 1
18199 49 1
18200 18 1
18200 45 1
18201 38 1
18202 30 1
18203 4 1
18204 25 1
18204 45 1
18204 52 1
18205 58 1
18206 54 1
18207 4 1
18207 68 1
18208 13 1
18208 45 1
18209 54 1
18210 13 1
18211 9 1
18212 62 1
18213 45 1
18214 23 1
18214 70 1
18215 52 1
18216 4 1
18217 68 1
18217 70 1
18218 32 1
18219 45 1
18220 70 1
18221 12 1
18222 13 1
18222 21 1
18223 71 1
18224 62 1
18225 45 1
18226 34 1
18226 73 1
18227 38 1
18228 59 1
18229 54 1
18230 2 2
18230 52 1
18231 59 1
18232 38 1
18233 70 1
18234 62 1
18235 60 1
18236 43 1
18237 59 1
18238 45 1
18239 2 1
18240 69 1
18241 70 1
18242 70 1
18243 52 1
18244 54 1
18245 43 1
18246 5 1
18247 45 1
18248 60 1
18249 31 1
18249 33 1
18250 68 1
18251 62 1
18252 60 1
18253 61 1
18254 52 1
18255 52 1
18256 49 1
18257 18 1
18258 52 1
18258 70 1
18259 61 1
18260 70 1
18261 24 1
18261 52 1
18262 70 1
18263 68 1
18264 30 1
18264 38 1
18264 62 1
18265 54 1
18266 54 1
18267 30 1
18267 52 1
18268 70 1
18269 71 1
18270 68 1
18271 54 1
18271 70 1
18272 70 1
18273 25 1
18274 70 1
18275 6 1
18276 12 1
18277 70 1
18278 70 1
18279 34 1
18280 70 1
18281 13 1
18282 60 1
18283 32 1
18284 13 1
18285 45 1
18286 70 2
18287 54 2
18288 62 1
18289 4 1
18290 33 1
18291 13 1
18292 70 1
18293 38 1
18294 43 1
18295 52 1
18296 70 1
18297 30 1
18298 45 1
18299 5 1
18300 25 1
18300 70 1
18301 62 1
18302 34 1
18303 70 1
18304 26 1
18305 38 1
18306 43 1
18306 60 1
18307 34 1
18308 62 1
18309 54 1
18309 70 1
18310 4 1
18311 49 1
18312 52 1
18313 58 1
18314 41 1
18315 62 1
18316 54 1
18317 52 1
18318 54 1
18319 54 1
18320 14 1
18321 70 1
18322 52 1
18323 18 1
18324 70 1
18325 43 1
18325 65 1
18326 40 1
18327 38 1
18328 54 1
18329 47 1
18330 30 1
18331 25 1
18332 32 1
18332 59 1
18332 63 1
18333 48 1
18333 71 1
18334 45 1
18335 68 1
18336 71 1
18337 70 1
18338 48 1
18339 38 2
18339 52 1
18340 71 1
18341 52 1
18342 32 1
18343 13 1
18344 54 1
18344 70 1
18345 20 1
18346 70 1
18347 4 1
18347 55 1
18347 62 1
18348 55 1
18349 71 1
18350 17 1
18350 70 1
18351 64 1
18352 31 1
18353 70 1
18354 71 1
18355 71 1
18356 5 1
18356 25 1
18357 38 1
18357 70 1
18358 48 1
18358 58 1
18358 70 1
18359 20 1
18360 4 1
18360 6 1
18360 9 1
18360 10 3
18360 15 1
18360 18 1
18360 20 2
18360 24 1
18360 31 2
18360 32 6
18360 34 1
18360 43 2
18360 45 5
18360 46 1
18360 51 2
18360 52 1
18360 54 1
18360 58 1
18360 59 1
18360 61 3
18360 70 1
18360 71 1
18361 38 1
18362 38 1
18363 70 1
18364 7 1
18365 54 1
18366 70 1
18367 38 1
18368 70 1
18369 51 1
18370 49 1
18371 61 1
18372 70 1
18373 71 1
18374 63 1
18375 70 1
18376 12 1
18376 58 1
18377 45 1
18378 62 1
18379 70 1
18380 24 1
18380 38 1
18380 62 1
18381 70 1
18382 25 1
18383 62 1
18384 68 2
18385 48 1
18386 71 1
18387 20 1
18388 13 1
18389 62 1
18389 71 1
18390 20 1
18391 52 1
18392 18 1
18393 13 1
18393 45 1
18393 51 1
18393 58 1
18394 38 1
18395 30 1
18395 31 1
18395 32 1
18395 54 1
18395 58 1
18396 54 1
18397 52 1
18398 62 1
18398 71 1
18399 40 1
18400 26 1
18401 70 1
18402 27 1
18403 52 1
18403 70 1
18404 68 1
18405 43 1
18406 25 1
18408 2 1
18408 40 1
18409 71 1
18410 18 1
18410 20 1
18411 68 1
18412 70 1
18413 62 1
18414 70 1
18415 38 2
18415 52 1
18415 65 1
18416 70 1
18417 54 1
18417 62 1
18418 70 1
18419 52 1
18420 49 1
18421 68 1
18422 68 1
18423 25 1
18424 58 1
18425 71 1
18426 45 1
18427 68 1
18428 12 1
18429 68 1
18430 18 1
18431 38 1
18432 14 1
18433 5 1
18434 52 1
18434 70 3
18435 45 1
18436 54 1
18437 12 1
18438 71 1
18439 70 1
18440 60 1
18440 62 1
18441 60 1
18441 70 1
18442 24 1
18442 34 1
18442 70 1
18443 48 1
18444 70 1
18445 70 1
18446 34 1
18447 62 1
18448 52 1
18449 70 1
18450 70 1
18451 70 1
18452 34 1
18454 34 1
18455 52 1
18456 55 1
18456 60 1
18457 70 1
18458 14 1
18459 52 1
18460 62 1
18461 23 1
18461 52 1
18462 48 1
18463 52 1
18464 45 1
18465 55 1
18465 62 1
18466 68 1
18467 45 1
18468 62 1
18469 34 1
18470 32 1
18471 54 1
18471 63 1
18471 70 2
18472 54 2
18473 4 1
18475 45 1
18476 62 1
18477 43 1
18477 70 1
18478 62 1
18479 70 1
18480 68 1
18481 32 1
18482 62 1
18483 52 1
18484 70 1
18485 62 1
18486 70 1
18487 51 1
18488 33 1
18488 34 1
18489 71 2
18490 62 1
18491 70 1
18493 51 1
18494 62 1
18495 40 1
18496 70 1
18497 60 2
18498 62 1
18499 9 1
18500 48 1
18501 52 1
18502 62 1
18503 70 1
18504 38 1
18505 6 1
18506 43 1
18507 12 1
18508 48 1
18509 38 1
18510 68 1
18511 5 1
18512 52 1
18513 70 1
18514 4 1
18515 52 1
18516 51 1
18517 31 1
18517 62 1
18518 52 1
18519 43 1
18520 70 2
18521 25 1
18522 30 1
18523 34 1
18524 18 1
18525 55 1
18526 32 1
18526 70 1
18527 38 1
18527 54 1
18528 61 1
18529 70 1
18530 45 1
18531 70 1
18532 65 1
18533 60 1
18534 38 1
18534 62 1
18535 70 1
18536 52 1
18537 38 1
18537 54 1
18538 70 1
18539 70 1
18540 38 1
18541 52 1
18541 70 2
18542 14 1
18543 62 1
18543 70 2
18544 70 1
18545 54 1
18546 70 1
18547 38 2
18547 70 2
18548 20 1
18548 60 1
18549 57 1
18550 30 1
18551 51 1
18551 70 1
18552 25 1
18553 9 1
18553 51 1
18554 70 1
18555 54 1
18557 33 1
18557 65 1
18558 38 1
18559 52 1
18560 45 1
18560 70 2
18561 71 1
18562 12 1
18563 60 1
18564 70 1
18565 52 1
18566 2 1
18567 60 1
18568 38 1
18569 33 1
18570 38 1
18571 52 1
18572 54 1
18573 18 1
18573 54 1
18574 55 1
18575 68 1
18576 70 1
18577 55 1
18578 71 1
18579 59 1
18581 71 1
18582 32 1
18583 52 1
18584 12 1
18585 63 1
18586 54 1
18586 70 1
18587 6 1
18588 63 2
18589 48 1
18590 30 1
18591 59 1
18592 20 1
18593 54 1
18594 46 1
18595 44 1
18596 9 1
18596 70 1
18597 52 1
18598 52 1
18599 18 1
18600 59 1
18600 70 1
18601 30 1
18602 45 1
18603 71 1
18604 18 1
18605 71 1
18606 71 1
18607 70 1
18608 33 1
18609 62 1
18610 34 1
18611 13 1
18612 70 1
18613 5 1
18614 71 1
18615 49 1
18615 70 1
18616 9 1
18616 45 1
18616 48 1
18616 52 1
18617 70 1
18618 14 1
18619 25 1
18620 63 1
18621 70 1
18622 54 1
18623 9 1
18624 20 1
18625 18 1
18626 48 1
18627 62 1
18628 44 1
18629 12 1
18630 41 1
18631 70 1
18632 58 1
18633 33 1
18634 30 1
18635 45 1
18636 54 1
18638 38 1
18639 4 1
18640 42 1
18641 33 1
18642 45 1
18643 58 1
18644 5 1
18645 70 1
18646 62 1
18647 52 1
18647 70 1
18648 45 1
18649 54 1
18649 70 2
18650 60 1
18650 62 1
18651 63 1
18652 32 1
18653 32 1
18654 63 1
18655 9 1
18656 32 1
18657 45 1
18658 34 1
18659 62 1
18660 70 1
18661 54 1
18662 32 1
18663 1 1
18663 2 4
18663 4 7
18663 6 5
18663 7 1
18663 9 2
18663 13 11
18663 14 1
18663 17 1
18663 18 2
18663 20 8
18663 23 2
18663 24 1
18663 25 20
18663 30 5
18663 31 1
18663 32 7
18663 33 1
18663 34 4
18663 38 10
18663 39 1
18663 40 3
18663 41 1
18663 42 2
18663 43 21
18663 45 9
18663 48 2
18663 49 10
18663 51 3
18663 52 25
18663 54 17
18663 55 1
18663 58 14
18663 59 3
18663 60 6
18663 61 9
18663 62 16
18663 63 4
18663 65 3
18663 66 1
18663 68 5
18663 70 18
18663 71 7
18664 62 1
18665 52 1
18666 70 1
18666 71 1
18667 44 1
18668 54 1
18669 42 1
18670 52 1
18670 70 1
18671 42 1
18672 42 1
18673 32 1
18674 40 1
18675 25 1
18676 49 1
18677 71 1
18678 52 1
18679 9 1
18680 52 1
18681 30 1
18682 54 1
18682 70 1
18683 51 1
18684 70 1
18685 63 1
18686 43 1
18687 70 1
18688 71 1
18689 51 1
18690 51 1
18690 70 1
18691 54 1
18692 45 1
18693 70 1
18694 13 1
18695 32 1
18696 4 1
18698 62 1
18699 45 1
18700 71 1
18701 38 1
18701 70 2
18702 71 1
18703 62 1
18704 54 1
18705 70 1
18706 25 1
18707 65 1
18708 51 1
18709 70 1
18710 25 1
18711 71 1
18712 38 1
18714 52 1
18714 71 1
18715 52 1
18716 41 1
18717 68 1
18718 48 1
18718 62 1
18719 12 1
18719 38 1
18720 71 2
18721 52 1
18722 70 1
18723 70 1
18724 52 1
18725 51 1
18726 52 1
18727 18 1
18728 9 1
18729 13 1
18730 21 1
18731 71 1
18732 70 1
18733 70 1
18734 70 1
18735 70 1
18736 52 1
18737 5 1
18737 20 1
18738 49 1
18739 52 1
18740 70 1
18741 70 1
18742 25 1
18743 54 1
18744 70 1
18745 9 1
18746 54 1
18747 70 1
18748 14 1
18750 63 1
18750 70 1
18751 70 1
18752 70 1
18753 34 1
18754 59 1
18754 65 1
18755 71 1
18756 52 1
18757 31 1
18758 54 1
18758 70 1
18759 52 1
18760 4 1
18761 2 2
18761 4 4
18761 5 1
18761 7 1
18761 9 1
18761 10 1
18761 13 4
18761 20 1
18761 25 1
18761 26 1
18761 30 3
18761 31 1
18761 32 2
18761 33 2
18761 38 4
18761 42 1
18761 43 7
18761 45 2
18761 49 2
18761 51 1
18761 52 4
18761 54 2
18761 58 7
18761 59 1
18761 61 1
18761 62 4
18761 70 1
18761 71 1
18762 30 1
18763 70 1
18764 70 1
18765 51 1
18766 30 1
18767 54 1
18768 72 1
18769 42 1
18770 25 1
18771 14 1
18772 32 1
18773 52 1
18773 60 1
18774 34 1
18775 45 1
18776 55 1
18777 13 1
18778 62 1
18778 70 1
18779 70 1
18780 34 1
18781 52 1
18781 70 1
18782 71 1
18783 70 2
18784 54 2
18785 45 2
18786 70 1
18787 51 1
18788 51 1
18789 34 1
18790 71 1
18791 52 1
18792 70 1
18793 58 1
18794 48 1
18794 52 1
18795 45 1
18796 34 1
18796 52 1
18797 62 1
18798 45 1
18799 18 1
18800 62 1
18801 17 1
18802 13 1
18803 45 1
18804 58 1
18805 51 1
18807 54 1
18808 60 1
18809 38 1
18810 68 1
18811 38 1
18813 45 1
18813 54 1
18814 61 1
18815 70 1
18816 70 1
18817 70 1
18818 32 1
18819 20 1
18820 34 1
18820 70 1
18821 55 1
18821 71 1
18822 70 1
18823 45 1
18824 4 1
18825 70 1
18826 18 1
18827 54 1
18828 51 1
18829 5 1
18829 52 1
18830 54 1
18831 68 1
18832 20 1
18833 70 1
18834 52 1
18835 20 1
18835 49 1
18835 71 1
18836 25 1
18836 41 1
18836 52 1
18837 12 1
18838 71 1
18839 55 1
18840 70 1
18841 13 1
18841 54 1
18842 52 1
18843 45 1
18844 70 1
18845 45 1
18846 59 1
18847 33 1
18847 54 1
18848 23 1
18850 70 1
18851 70 1
18852 71 1
18853 30 1
18854 6 1
18855 20 1
18856 38 1
18857 52 1
18858 68 1
18859 51 1
18860 11 1
18860 13 1
18861 62 1
18862 62 1
18863 18 1
18864 20 1
18865 51 1
18866 6 1
18867 38 1
18867 41 1
18868 6 1
18869 43 1
18870 54 1
18871 2 1
18872 70 1
18873 7 1
18874 48 1
18875 34 1
18876 6 1
18876 38 1
18877 41 1
18878 30 1
18879 54 1
18880 6 1
18881 71 1
18882 45 1
18883 25 1
18884 71 1
18885 70 1
18886 52 1
18887 32 1
18888 18 1
18889 45 1
18890 13 1
18891 55 1
18892 25 1
18893 63 1
18894 55 1
18895 20 1
18896 54 1
18897 43 1
18898 59 1
18899 45 1
18900 71 1
18901 20 1
18902 4 1
18903 45 1
18904 13 1
18905 45 1
18906 70 1
18907 18 1
18908 62 1
18908 71 1
18909 48 1
18910 18 1
18910 38 1
18912 58 1
18912 70 1
18913 62 1
18914 70 2
18915 70 1
18916 70 1
18917 31 1
18918 34 1
18919 6 1
18919 55 1
18920 58 1
18921 25 1
18921 38 1
18921 70 1
18922 25 1
18923 61 1
18924 70 1
18925 38 1
18926 52 1
18927 45 1
18928 54 1
18929 20 1
18930 30 1
18931 31 1
18932 38 1
18933 1 1
18934 51 1
18935 62 1
18936 13 1
18937 54 1
18938 45 1
18938 70 2
18938 71 1
18939 62 1
18940 54 1
18941 54 1
18943 38 1
18944 70 1
18945 13 1
18945 41 1
18946 25 1
18947 30 1
18947 34 1
18948 4 1
18949 71 1
18950 70 1
18952 52 1
18952 62 2
18953 65 1
18954 70 1
18955 54 1
18956 62 1
18957 31 1
18958 51 1
18959 31 1
18960 58 1
18961 54 1
18962 25 1
18963 52 1
18964 20 1
18965 54 1
18966 30 1
18966 38 1
18967 6 1
18968 49 1
18969 71 2
18970 18 1
18972 48 1
18973 52 1
18974 61 1
18975 30 1
18975 65 1
18976 6 1
18977 54 1
18977 71 1
18978 9 1
18979 9 1
18979 70 1
18980 70 1
18981 54 1
18982 13 1
18982 65 1
18982 71 1
18983 18 1
18983 54 1
18984 30 1
18985 30 1
18986 41 1
18986 70 1
18987 62 1
18988 45 2
18989 54 1
18990 45 1
18990 63 1
18991 71 1
18992 52 1
18993 62 1
18994 54 1
18995 32 1
18995 43 1
18995 70 1
18996 52 1
18997 30 1
18997 31 1
18998 52 1
18999 38 1
19000 45 1
19001 54 1
19002 52 1
19003 54 1
19004 34 2
19005 45 1
19005 52 1
19006 52 1
19007 51 1
19008 70 1
19009 70 1
19010 44 1
19011 68 1
19012 68 1
19012 71 1
19013 20 1
19014 63 1
19015 30 1
19016 51 1
19017 62 1
19018 71 1
19019 54 3
19020 62 1
19021 59 1
19022 51 1
19023 4 1
19024 45 1
19025 44 1
19026 62 1
19027 52 1
19028 38 1
19029 30 1
19029 52 1
19030 71 1
19031 52 1
19032 43 1
19033 52 1
19034 58 1
19035 12 1
19035 70 1
19036 62 1
19037 14 1
19038 43 1
19039 52 1
19040 70 1
19041 48 1
19042 30 1
19042 48 1
19042 51 1
19043 70 1
19044 43 1
19045 34 1
19045 52 1
19046 58 1
19047 62 1
19048 61 1
19049 12 1
19049 70 1
19050 60 1
19050 70 1
19051 10 1
19051 52 1
19051 70 1
19052 4 1
19052 11 1
19052 24 1
19052 30 1
19052 68 1
19053 70 1
19054 33 1
19055 59 1
19056 12 1
19056 71 2
19057 51 1
19057 62 1
19058 70 1
19059 32 1
19061 52 1
19062 61 1
19062 70 1
19063 38 1
19064 62 1
19065 25 1
19066 71 1
19067 62 1
19067 70 1
19068 55 1
19069 25 1
19070 52 1
19071 61 1
19072 45 1
19072 52 1
19073 2 1
19074 43 1
19074 70 1
19075 2 1
19076 25 1
19076 51 1
19076 62 1
19077 55 1
19078 52 1
19079 20 1
19080 33 1
19081 20 1
19082 70 1
19082 71 1
19083 68 1
19084 6 1
19084 71 1
19085 54 1
19086 20 1
19086 51 1
19087 52 1
19088 70 1
19089 32 1
19090 68 1
19091 51 1
19092 70 1
19093 52 1
19094 13 1
19094 60 1
19094 68 1
19095 65 1
19096 70 1
19097 62 1
19098 9 1
19098 40 1
19100 25 1
19101 70 2
19102 71 1
19103 60 1
19104 70 1
19105 70 1
19106 13 1
19107 70 1
19108 70 1
19109 48 1
19110 12 1
19111 52 1
19112 70 1
19113 52 1
19114 70 1
19116 2 1
19117 62 1
19118 68 1
19119 62 1
19120 25 1
19121 20 1
19122 69 1
19123 70 1
19124 58 1
19125 38 1
19126 25 1
19127 43 1
19128 13 1
19129 18 1
19130 70 1
19131 65 1
19132 62 1
19133 49 1
19134 70 1
19135 14 1
19136 51 1
19137 45 1
19139 54 1
19140 54 1
19141 34 1
19141 51 2
19142 30 1
19142 31 1
19143 38 1
19143 43 1
19143 51 1
19143 70 1
19144 12 1
19145 31 1
19145 54 1
19146 58 1
19147 45 1
19148 5 1
19149 59 1
19149 70 1
19150 52 1
19152 71 1
19153 71 1
19154 54 2
19154 65 1
19155 52 1
19156 52 1
19157 54 1
19158 45 1
19159 70 1
19160 59 1
19161 71 1
19162 34 1
19164 43 1
19165 71 1
19166 62 1
19167 62 1
19168 20 1
19168 45 1
19169 51 1
19170 25 1
19171 13 1
19172 70 1
19173 65 1
19174 4 2
19174 25 1
19174 30 2
19174 31 2
19174 32 1
19174 48 1
19174 61 2
19174 62 1
19174 65 2
19174 70 1
19174 71 1
19175 54 1
19176 58 1
19177 70 1
19178 51 1
19179 9 1
19180 10 1
19181 52 1
19182 70 1
19183 70 1
19184 70 1
19185 42 1
19185 60 1
19185 71 1
19186 70 1
19187 54 1
19188 55 1
19189 48 1
19189 52 1
19190 34 1
19191 68 1
19192 31 1
19193 10 1
19193 70 1
19194 71 1
19195 71 1
19196 45 1
19197 62 1
19198 55 1
19199 52 1
19199 54 1
19200 38 1
19200 62 1
19201 23 1
19201 70 1
19202 70 1
19203 54 1
19204 58 1
19205 62 1
19206 70 1
19207 52 1
19208 49 1
19209 51 1
19210 14 1
19210 68 1
19211 70 1
19212 61 1
19213 70 2
19214 30 1
19215 18 1
19216 70 1
19217 70 1
19218 30 1
19219 41 1
19219 54 2
19220 34 1
19221 51 1
19222 32 1
19222 62 1
19223 11 1
19223 32 1
19223 61 1
19223 63 1
19224 54 1
19225 70 1
19226 55 1
19227 24 1
19228 43 1
19229 12 1
19230 45 1
19231 70 1
19232 10 1
19232 28 1
19233 25 1
19233 70 1
19234 71 1
19235 38 1
19236 70 1
19237 32 1
19238 45 1
19239 57 1
19240 38 1
19240 55 1
19241 30 1
19242 70 1
19243 52 1
19243 60 1
19244 30 1
19245 32 1
19246 52 1
19247 54 1
19248 52 1
19249 12 1
19250 38 1
19251 51 1
19251 52 1
19252 71 1
19253 52 1
19253 57 1
19254 70 1
19255 4 1
19255 71 1
19256 48 1
19256 52 1
19257 51 1
19258 10 1
19258 41 1
19259 13 1
19260 4 1
19260 70 1
19261 18 1
19262 24 1
19262 70 1
19263 34 1
19264 52 1
19265 70 1
19266 48 1
19267 52 1
19268 62 1
19269 52 1
19270 52 1
19271 45 1
19272 13 1
19272 49 1
19273 61 1
19274 20 1
19274 54 1
19274 65 1
19274 70 1
19275 70 1
19276 52 1
19276 70 1
19277 70 2
19278 33 1
19279 61 1
19280 51 2
19281 70 1
19282 51 1
19282 70 1
19283 70 1
19284 54 1
19285 51 1
19286 4 1
19287 38 1
19288 6 1
19288 13 1
19288 48 1
19289 71 1
19290 38 1
19290 52 1
19291 45 1
19292 45 1
19293 20 1
19294 38 1
19294 48 1
19295 52 1
19296 55 1
19297 45 1
19298 45 1
19299 6 1
19299 9 1
19299 18 1
19300 38 1
19301 9 1
19302 15 1
19302 38 1
19303 24 1
19304 62 1
19305 10 1
19305 34 1
19306 58 1
19307 45 1
19308 34 1
19308 52 1
19308 58 1
19309 20 1
19309 52 1
19310 63 1
19311 2 1
19312 20 1
19313 70 2
19314 38 1
19315 70 1
19316 52 1
19316 71 1
19317 70 1
19318 65 1
19319 71 1
19320 70 1
19321 59 1
19322 70 1
19323 52 2
19323 68 1
19324 52 1
19324 54 1
19325 34 1
19326 5 1
19327 40 1
19329 71 1
19330 30 1
19330 71 1
19331 4 1
19332 45 1
19333 6 1
19333 28 1
19334 34 1
19335 70 1
19336 68 1
19337 71 1
19338 25 1
19338 70 1
19339 71 1
19340 41 1
19341 44 1
19342 70 1
19343 38 1
19344 71 1
19345 38 1
19346 70 1
19347 70 1
19348 24 1
19349 44 1
19350 2 1
19351 30 1
19352 62 1
19353 31 1
19354 38 1
19355 4 1
19356 70 2
19357 2 1
19357 5 1
19358 34 1
19359 71 1
19360 13 1
19361 45 1
19362 58 1
19363 2 1
19364 33 1
19365 70 1
19366 70 1
19367 30 1
19368 10 1
19369 71 1
19370 62 1
19371 60 1
19372 70 1
19373 70 2
19374 38 1
19375 4 1
19376 13 1
19377 70 2
19378 38 2
19379 41 1
19380 10 1
19380 62 1
19381 18 1
19382 68 1
19383 45 1
19384 20 1
19385 13 1
19385 20 1
19387 54 1
19387 71 1
19388 49 1
19389 38 1
19389 54 1
19389 70 1
19390 45 1
19390 52 1
19391 13 1
19392 25 1
19393 60 1
19394 70 1
19395 54 1
19396 60 1
19397 68 1
19398 52 1
19399 34 1
19400 38 1
19401 18 1
19401 60 1
19403 57 1
19404 51 1
19404 55 1
19405 63 1
19406 12 1
19406 14 1
19407 71 1
19408 45 1
19408 71 1
19409 54 1
19409 62 1
19410 70 1
19411 58 1
19412 45 1
19413 45 1
19413 63 1
19414 61 1
19415 48 1
19416 38 1
19416 71 1
19417 62 1
19418 55 1
19419 52 1
19421 41 1
19422 13 1
19423 38 1
19424 38 1
19424 52 1
19425 15 1
19425 51 1
19425 68 1
19426 70 1
19427 68 1
19428 70 1
19429 13 1
19429 14 1
19429 52 1
19430 20 1
19431 13 1
19432 48 1
19433 49 1
19434 37 1
19435 55 1
19436 54 1
19437 13 1
19438 61 1
19439 68 1
19439 70 1
19440 25 1
19441 38 1
19442 65 1
19443 12 1
19444 45 1
19444 55 1
19445 71 1
19446 43 1
19447 5 1
19448 6 1
19449 52 1
19450 62 1
19451 12 1
19452 61 1
19453 4 1
19454 30 1
19454 70 1
19455 38 1
19455 43 1
19455 54 1
19455 70 3
19456 51 1
19457 32 1
19457 55 1
19458 13 1
19459 63 1
19460 51 1
19461 2 4
19461 12 1
19461 20 1
19461 30 1
19461 38 2
19461 41 1
19461 45 1
19461 48 1
19461 51 1
19461 52 2
19461 55 2
19461 60 1
19461 61 1
19461 68 1
19461 71 9
19462 30 1
19463 58 1
19464 52 1
19465 70 1
19466 54 1
19467 40 1
19468 60 1
19469 70 1
19470 68 1
19471 58 1
19472 4 1
19472 48 1
19473 38 1
19474 62 1
19475 70 1
19476 60 1
19476 62 1
19477 38 1
19478 70 1
19479 62 1
19480 52 1
19481 48 1
19482 12 1
19483 62 1
19484 40 1
19484 49 1
19485 18 1
19485 30 1
19485 49 1
19486 70 1
19487 52 1
19487 70 2
19488 63 1
19489 13 1
19489 63 1
19490 38 1
19491 48 2
19491 55 1
19492 45 1
19493 45 1
19493 51 1
19494 20 1
19495 20 1
19495 70 1
19496 52 1
19496 60 2
19497 25 1
19498 10 1
19499 58 1
19500 62 1
19501 54 1
19502 18 1
19503 18 2
19503 70 1
19504 54 1
19505 45 1
19505 52 1
19506 43 1
19507 13 1
19508 38 1
19508 70 1
19509 34 1
19510 70 1
19511 20 1
19512 43 1
19512 51 1
19513 5 1
19514 34 1
19515 13 1
19516 62 1
19517 52 1
19518 20 1
19519 70 1
19520 71 1
19521 70 1
19521 71 1
19522 58 1
19523 32 1
19524 13 1
19525 25 1
19526 20 1
19527 55 1
19528 70 1
19529 13 1
19529 54 1
19530 70 1
19531 26 1
19532 24 1
19533 38 1
19534 32 1
19535 70 1
19536 54 1
19537 52 1
19538 52 1
19539 9 1
19540 45 1
19541 33 1
19541 48 1
19542 52 1
19543 54 1
19544 51 1
19545 70 1
19546 13 1
19547 70 1
19548 70 1
19549 9 1
19549 38 1
19549 70 1
19549 71 1
19550 70 1
19551 34 1
19552 13 1
19552 41 1
19553 54 1
19554 52 1
19554 70 1
19555 25 1
19556 68 1
19557 70 1
19558 58 1
19558 70 2
19559 49 1
19560 13 1
19561 70 1
19562 45 1
19563 70 1
19564 4 1
19565 18 1
19566 13 1
19566 32 1
19567 54 1
19568 61 1
19569 45 1
19570 54 2
19571 6 1
19572 71 1
19573 7 1
19574 38 1
19575 43 1
19576 13 1
19577 40 1
19577 54 2
19577 58 1
19577 60 1
19578 68 1
19579 32 1
19580 52 1
19580 70 1
19581 10 1
19582 68 1
19583 28 1
19584 70 1
19585 58 1
19586 51 1
19587 62 1
19588 70 1
19589 13 1
19590 62 1
19591 33 1
19592 32 1
19593 48 1
19594 52 1
19595 52 1
19596 4 1
19597 65 1
19598 25 1
19599 54 1
19600 70 1
19601 38 1
19601 58 1
19601 71 1
19602 9 1
19603 71 1
19604 38 1
19605 43 1
19606 62 1
19607 52 1
19608 4 1
19609 30 1
19610 13 1
19611 40 1
19612 49 1
19613 12 1
19613 62 1
19613 71 2
19614 49 1
19614 70 1
19615 14 1
19616 62 1
19617 22 1
19618 52 1
19619 45 1
19620 34 1
19620 70 1
19621 71 1
19622 52 1
19623 62 1
19624 60 1
19625 43 1
19626 54 1
19627 9 1
19627 70 3
19628 52 1
19629 70 1
19630 62 1
19631 59 1
19632 48 1
19633 51 1
19633 70 1
19634 71 1
19635 20 1
19635 51 1
19637 38 2
19637 52 1
19637 71 1
19638 9 1
19639 5 1
19639 13 1
19639 38 1
19639 52 1
19639 71 1
19640 52 1
19641 14 1
19642 38 1
19643 25 1
19644 9 1
19645 71 1
19646 45 1
19647 62 1
19648 71 1
19649 68 1
19650 31 1
19650 45 1
19650 62 1
19651 71 1
19652 60 1
19653 68 1
19654 54 1
19654 73 1
19655 55 1
19656 33 1
19657 68 1
19658 62 1
19659 70 1
19660 70 1
19661 70 1
19662 52 1
19663 70 1
19664 54 1
19664 58 1
19664 70 1
19665 51 1
19666 43 1
19667 4 1
19668 70 1
19669 31 1
19670 2 1
19671 14 1
19671 38 1
19672 70 1
19674 5 1
19674 70 1
19675 52 1
19676 12 1
19676 52 1
19677 38 1
19678 70 1
19679 52 1
19679 70 2
19680 70 1
19681 4 1
19682 48 1
19683 12 1
19684 51 1
19685 10 1
19686 10 1
19687 48 1
19688 13 1
19689 52 1
19690 61 1
19690 68 1
19691 5 1
19691 32 1
19692 70 1
19693 38 1
19694 34 1
19694 69 1
19694 71 1
19695 61 1
19696 70 1
19697 68 1
19698 4 1
19699 31 1
19699 51 1
19700 49 1
19701 71 1
19702 18 1
19703 62 1
19704 58 1
19705 52 1
19705 54 1
19706 70 1
19707 10 1
19707 33 1
19708 43 1
19708 70 1
19709 70 2
19710 70 1
19711 71 1
19712 60 1
19713 60 1
19713 70 1
19714 25 1
19715 13 1
19716 62 1
19717 41 1
19718 65 1
19718 70 1
19719 71 1
19720 52 1
19720 70 1
19721 32 1
19722 52 1
19723 6 1
19724 45 1
19725 39 1
19726 70 1
19727 20 1
19727 38 1
19728 20 1
19729 52 1
19730 38 1
19731 6 1
19732 70 1
19733 54 1
19734 33 1
19735 70 1
19737 25 1
19738 41 1
19739 13 1
19740 4 1
19741 54 1
19742 70 1
19743 70 1
19744 54 1
19745 31 1
19746 45 1
19747 12 1
19747 60 1
19748 51 1
19748 52 1
19749 54 1
19750 43 1
19751 70 1
19753 71 1
19754 70 1
19755 25 1
19756 38 1
19757 71 1
19758 9 1
19759 60 1
19760 71 1
19761 70 1
19761 71 1
19762 68 1
19763 51 1
19764 30 1
19764 60 1
19765 68 1
19766 58 1
19767 62 1
19768 63 1
19768 68 1
19769 70 2
19770 25 1
19771 70 1
19772 2 1
19773 45 1
19774 31 1
19775 45 1
19776 44 1
19777 30 1
19778 49 1
19779 39 1
19779 69 1
19780 58 1
19781 70 1
19781 71 1
19782 2 1
19783 4 2
19784 51 1
19785 65 1
19786 18 1
19787 45 1
19788 65 1
19789 40 1
19789 71 1
19790 52 2
19790 62 1
19791 30 1
19792 54 1
19793 18 1
19793 31 1
19794 54 1
19795 51 1
19795 62 1
19796 31 1
19796 62 1
19797 32 1
19797 71 1
19798 45 1
19799 30 1
19799 62 1
19800 62 1
19801 30 1
19802 24 1
19802 70 1
19803 45 1
19804 44 1
19804 62 1
19805 54 1
19806 60 1
19806 70 1
19807 62 1
19808 34 1
19809 23 1
19810 51 1
19811 12 1
19812 48 1
19813 37 1
19813 60 1
19814 25 1
19815 49 1
19816 70 1
19817 63 1
19818 49 1
19819 70 1
19820 55 1
19821 13 1
19822 45 1
19823 45 1
19823 55 1
19823 58 1
19823 60 1
19823 70 1
19824 30 1
19825 70 1
19826 4 1
19827 30 1
19827 38 1
19827 48 1
19827 70 1
19828 20 1
19829 70 1
19830 45 1
19831 12 1
19833 73 1
19834 70 1
19835 52 1
19835 71 1
19836 20 1
19836 62 1
19836 68 1
19837 58 1
19838 65 1
19839 13 1
19840 70 1
19841 70 1
19842 3 1
19843 70 1
19844 70 1
19845 59 1
19846 51 1
19847 60 1
19848 36 1
19849 18 1
19850 58 1
19850 70 1
19851 70 1
19852 30 1
19853 70 1
19854 63 1
19855 70 2
19856 52 1
19857 71 1
19858 32 1
19858 38 1
19859 52 1
19860 54 1
19861 33 1
19862 70 1
19863 51 1
19864 61 1
19865 65 1
19866 45 1
19867 31 1
19867 51 1
19868 70 1
19869 65 1
19870 38 1
19870 62 1
19871 18 1
19872 60 1
19873 43 1
19874 71 1
19875 48 1
19876 70 1
19877 25 1
19878 62 1
19879 13 1
19880 60 1
19881 60 1
19882 70 1
19883 18 1
19883 70 1
19884 70 1
19885 45 1
19886 18 1
19887 51 1
19887 52 1
19888 62 1
19889 31 1
19890 54 1
19891 45 1
19892 38 1
19893 48 1
19894 9 1
19895 45 1
19895 70 2
19896 70 1
19897 25 1
19898 26 1
19898 30 1
19899 70 1
19900 45 1
19900 61 1
19900 70 1
19901 38 1
19902 44 1
19902 62 1
19903 42 1
19903 60 1
19904 25 1
19904 46 1
19905 20 1
19906 4 1
19907 25 1
19908 70 1
19909 62 1
19910 59 1
19910 70 1
19911 18 1
19912 71 1
19913 45 1
19914 51 1
19915 33 1
19915 65 1
19916 6 1
19916 24 1
19916 52 1
19916 71 1
19917 43 1
19918 12 1
19919 52 1
19919 54 1
19920 70 1
19921 45 1
19922 52 1
19923 51 1
19924 34 1
19925 70 1
19926 54 1
19927 52 1
19928 62 1
19929 34 1
19929 71 1
19930 58 1
19931 60 1
19932 70 1
19933 18 1
19934 54 1
19935 70 2
19936 12 1
19936 71 1
19937 4 1
19937 60 1
19938 20 1
19939 60 1
19940 38 1
19941 70 1
19942 54 1
19942 62 1
19943 5 1
19944 52 1
19945 13 1
19946 13 1
19947 45 1
19947 62 1
19948 25 1
19949 17 1
19950 43 1
19950 49 1
19950 70 1
19951 45 1
19952 70 1
19953 70 1
19954 70 1
19956 51 1
19957 45 1
19958 54 1
19959 34 1
19960 38 1
19961 44 1
19961 71 1
19962 34 1
19963 28 1
19964 52 1
19965 58 1
19966 52 1
19967 2 1
19968 45 1
19968 70 1
19969 62 1
19970 55 1
19971 4 1
19972 43 1
19973 68 1
19974 20 1
19975 71 1
19976 71 1
19977 4 1
19978 44 1
19979 48 1
19980 25 1
19981 2 1
19981 25 1
19982 21 1
19983 70 1
19984 13 1
19984 20 1
19985 70 1
19986 51 1
19987 39 1
19988 25 1
19989 18 1
19989 70 1
19990 45 1
19990 70 1
19991 4 1
19992 38 1
19993 70 1
19994 13 1
19994 54 1
19995 38 1
19996 31 1
19997 70 1
19998 52 1
19999 52 1
20000 70 1
20001 18 1
20001 25 1
20002 51 1
20002 62 1
20003 49 1
20004 51 1
20005 4 1
20005 38 1
20005 63 1
20006 25 1
20007 30 1
20008 26 1
20009 38 1
20010 71 1
20011 40 1
20012 71 1
20013 33 1
20014 38 1
20015 38 1
20016 49 1
20016 70 1
20017 2 1
20017 30 1
20018 30 1
20019 62 1
20020 63 1
20021 38 2
20022 45 1
20023 70 1
20024 34 1
20025 38 1
20026 55 1
20027 4 1
20028 25 1
20029 41 1
20029 49 1
20030 51 1
20031 25 1
20032 2 2
20032 62 1
20033 30 1
20034 61 1
20035 70 1
20036 38 1
20037 70 1
20038 15 1
20039 6 1
20040 70 1
20041 38 1
20042 52 1
20043 51 1
20044 43 1
20045 45 1
20046 58 1
20047 30 1
20048 58 1
20049 38 1
20050 71 1
20051 45 1
20052 45 1
20053 13 1
20054 70 1
20055 51 1
20056 39 1
20057 52 1
20058 70 1
20059 70 1
20060 31 1
20061 51 1
20062 25 1
20063 70 1
20064 52 1
20065 70 1
20066 38 1
20066 48 2
20067 52 1
20068 39 1
20069 52 1
20069 70 1
20070 70 1
20071 60 1
20072 54 1
20073 70 1
20074 21 1
20075 62 1
20076 12 1
20077 52 1
20078 8 1
20079 70 1
20080 70 1
20081 51 1
20082 34 1
20083 38 1
20083 70 1
20084 52 1
20085 38 1
20085 52 1
20086 62 1
20087 62 1
20088 51 1
20089 30 1
20090 4 1
20091 52 1
20092 48 1
20093 10 1
20094 44 1
20095 62 1
20096 38 1
20096 70 1
20097 62 1
20097 71 1
20098 45 1
20099 43 1
20099 51 1
20100 7 1
20101 62 1
20102 70 2
20103 12 1
20104 70 1
20105 41 1
20106 2 1
20107 70 1
20107 71 1
20108 9 1
20109 54 1
20109 68 1
20110 24 1
20111 9 2
20111 18 1
20112 54 1
20113 45 1
20114 70 1
20115 62 1
20116 70 1
20117 70 1
20118 18 1
20119 4 1
20119 61 1
20120 70 1
20121 20 1
20122 70 1
20123 51 1
20124 70 1
20125 68 1
20126 13 1
20127 54 1
20128 70 1
20129 31 1
20130 38 1
20130 55 1
20131 54 1
20132 12 1
20132 70 1
20133 12 1
20133 31 1
20133 39 1
20134 41 1
20135 58 1
20136 70 1
20137 63 1
20138 60 1
20138 61 1
20139 9 1
20139 21 1
20140 9 1
20140 48 1
20140 71 1
20141 68 1
20142 34 1
20143 38 1
20144 20 1
20145 51 1
20146 44 1
20147 51 1
20148 9 1
20149 54 1
20149 70 2
20150 54 1
20151 13 1
20152 30 1
20153 33 1
20154 70 1
20155 62 1
20156 18 1
20156 38 1
20157 12 2
20157 13 1
20157 20 2
20157 21 1
20157 25 1
20157 30 2
20157 31 1
20157 32 1
20157 33 1
20157 38 1
20157 41 1
20157 45 3
20157 47 1
20157 48 1
20157 51 5
20157 52 1
20157 54 2
20157 58 1
20157 60 2
20157 61 3
20157 62 2
20157 65 1
20157 68 2
20157 70 4
20157 71 2
20158 52 1
20159 70 1
20160 61 1
20161 13 1
20162 18 1
20163 12 1
20164 20 1
20165 13 1
20166 65 1
20167 68 1
20168 70 1
20169 59 1
20170 70 1
20171 20 1
20172 25 1
20173 51 1
20173 52 1
20174 70 2
20175 71 1
20176 52 1
20177 62 1
20178 20 1
20179 34 1
20180 70 1
20181 70 1
20182 52 1
20183 62 2
20184 30 1
20184 71 1
20185 60 1
20186 62 1
20187 45 1
20188 55 1
20188 58 1
20189 9 1
20189 20 1
20190 70 1
20191 20 1
20192 4 1
20193 62 1
20194 60 1
20195 9 1
20196 70 1
20197 62 1
20198 52 1
20200 25 1
20201 43 1
20201 71 1
20202 51 1
20203 48 1
20204 59 1
20205 2 1
20206 45 1
20207 40 1
20208 60 1
20209 25 1
20210 20 1
20211 54 1
20212 45 1
20213 62 1
20214 70 1
20215 62 1
20216 13 1
20217 62 1
20218 71 1
20220 48 1
20220 71 1
20221 38 1
20222 71 1
20223 45 1
20224 55 1
20225 52 1
20226 34 1
20227 45 1
20228 48 1
20229 54 1
20230 70 1
20231 52 1
20231 60 1
20232 52 1
20233 70 1
20234 38 1
20235 38 1
20236 70 1
20237 54 1
20237 70 1
20238 5 1
20239 30 1
20240 70 2
20241 6 1
20241 23 1
20241 25 1
20241 30 4
20241 31 1
20241 54 1
20241 59 1
20242 30 1
20243 52 1
20244 70 1
20245 30 1
20246 12 1
20247 20 1
20248 71 1
20249 34 1
20250 62 1
20251 70 1
20252 24 1
20252 31 1
20253 34 1
20253 48 1
20254 70 2
20255 70 1
20256 34 1
20257 54 1
20258 70 1
20259 2 1
20260 54 1
20261 38 1
20262 6 1
20262 45 1
20263 12 1
20263 18 1
20263 25 1
20263 32 1
20263 40 1
20263 45 1
20263 52 1
20263 54 1
20264 69 1
20265 55 1
20266 12 1
20267 55 1
20268 20 1
20269 23 1
20270 2 1
20271 52 1
20272 54 1
20273 34 1
20274 62 1
20275 40 1
20276 54 1
20277 45 1
20278 32 1
20279 60 1
20280 20 1
20281 12 1
20282 68 1
20283 54 1
20284 54 1
20284 70 1
20285 25 1
20286 54 1
20287 17 1
20288 51 1
20289 13 1
20290 62 2
20291 6 1
20291 30 1
20292 52 1
20293 49 1
20294 25 1
20295 54 1
20295 70 1
20296 70 1
20297 70 1
20298 52 1
20299 31 1
20300 44 1
20300 70 1
20302 6 1
20303 58 1
20304 54 1
20304 62 1
20305 30 1
20306 12 1
20307 70 1
20308 45 1
20309 55 1
20310 54 1
20311 9 1
20312 40 1
20313 54 1
20314 70 1
20315 14 1
20315 34 1
20315 45 1
20315 62 1
20315 70 1
20316 54 1
20316 62 1
20316 70 1
20317 60 1
20317 71 1
20318 68 1
20319 54 1
20320 52 1
20321 25 1
20322 62 1
20323 49 1
20324 54 1
20325 54 1
20327 6 1
20328 4 1
20329 70 1
20330 51 1
20331 24 1
20332 25 1
20332 30 1
20333 13 1
20334 4 1
20334 62 1
20335 48 1
20335 55 1
20336 70 1
20337 49 1
20338 34 1
20339 48 1
20340 70 1
20341 12 1
20342 52 1
20343 45 1
20344 52 1
20345 25 1
20345 52 1
20346 62 1
20347 52 2
20348 5 1
20349 9 1
20350 30 1
20351 61 1
20352 52 1
20353 40 1
20353 71 1
20354 45 1
20355 70 1
20356 13 1
20356 52 1
20357 33 1
20357 48 1
20358 62 1
20359 70 1
20360 59 1
20362 55 1
20363 51 1
20364 59 1
20365 39 1
20366 10 1
20367 70 1
20368 54 1
20369 38 1
20370 61 1
20371 5 1
20372 48 1
20373 70 1
20374 51 1
20375 52 1
20376 70 1
20377 20 1
20378 4 1
20379 43 1
20380 43 1
20381 5 1
20382 63 1
20383 68 1
20383 70 1
20384 30 1
20384 68 1
20385 52 1
20386 60 2
20387 70 1
20388 48 1
20389 70 1
20390 25 1
20390 61 1
20391 65 1
20392 51 1
20393 70 1
20394 41 1
20394 52 1
20395 70 1
20396 12 1
20397 68 1
20398 59 1
20400 58 1
20401 52 1
20402 62 1
20403 38 1
20404 70 1
20406 25 1
20406 38 1
20407 40 1
20408 38 1
20410 58 1
20411 70 1
20412 61 1
20413 63 1
20414 62 1
20415 2 1
20416 38 1
20417 62 1
20418 43 1
20419 45 1
20420 70 2
20421 52 1
20422 70 1
20423 38 1
20424 71 1
20425 6 1
20426 62 1
20427 48 1
20427 59 1
20428 6 1
20429 52 1
20430 32 1
20431 7 1
20432 70 1
20434 68 1
20436 58 1
20438 68 1
20439 45 1
20440 70 1
20441 55 1
20442 11 1
20443 34 1
20444 70 2
20445 70 1
20446 68 1
20447 54 1
20448 62 1
20449 37 1
20450 20 1
20451 14 1
20452 61 1
20452 71 1
20453 70 1
20454 49 1
20454 54 1
20455 45 1
20455 52 1
20455 68 1
20456 42 1
20457 58 1
20458 30 1
20459 7 1
20460 54 1
20461 52 1
20462 70 1
20463 70 1
20464 51 1
20466 52 1
20467 63 1
20468 45 1
20469 70 1
20470 52 1
20471 37 1
20472 12 2
20473 32 1
20474 24 1
20475 33 1
20476 30 1
20477 32 1
20478 62 1
20479 61 2
20480 70 1
20481 9 1
20482 52 1
20483 69 1
20484 4 1
20484 18 1
20484 71 1
20485 32 1
20485 71 1
20486 20 1
20487 62 1
20488 20 1
20488 30 1
20489 2 18
20489 4 7
20489 5 5
20489 6 9
20489 7 1
20489 8 1
20489 9 7
20489 10 6
20489 12 2
20489 13 8
20489 14 1
20489 15 2
20489 16 1
20489 17 1
20489 18 3
20489 20 16
20489 23 1
20489 24 10
20489 25 14
20489 28 1
20489 30 27
20489 31 6
20489 32 20
20489 33 10
20489 34 1
20489 37 1
20489 38 8
20489 39 1
20489 40 1
20489 42 4
20489 43 43
20489 45 5
20489 46 3
20489 48 3
20489 49 16
20489 50 1
20489 51 20
20489 52 11
20489 54 22
20489 55 6
20489 56 2
20489 58 54
20489 59 4
20489 60 1
20489 61 56
20489 62 25
20489 63 1
20489 65 5
20489 67 2
20489 68 22
20489 70 30
20489 71 25
20489 72 1
20490 51 1
20491 43 2
20491 62 1
20491 68 1
20492 2 1
20492 25 1
20492 52 1
20492 62 1
20493 30 1
20493 33 1
20493 62 1
20493 68 1
20493 71 1
20494 2 1
20494 4 1
20494 20 1
20494 30 1
20494 61 4
20494 68 1
20495 58 1
20496 41 1
20496 54 1
20497 2 1
20497 24 1
20498 52 1
20498 71 1
20499 30 1
20500 21 1
20501 40 1
20502 57 1
20503 25 1
20504 70 2
20505 18 1
20506 54 1
20506 55 1
20507 46 1
20507 71 1
20508 38 1
20508 54 1
20509 61 1
20510 62 1
20511 46 1
20512 7 1
20513 73 1
20514 43 1
20515 54 1
20516 70 1
20517 6 1
20517 60 1
20517 70 1
20518 71 1
20519 45 1
20520 65 1
20521 6 1
20522 70 1
20523 20 1
20524 70 1
20525 48 1
20526 33 1
20527 38 2
20528 34 1
20528 70 1
20529 45 1
20530 54 1
20531 21 1
20531 38 1
20532 59 1
20533 62 1
20534 48 1
20535 32 1
20535 51 1
20536 52 1
20536 70 1
20537 52 1
20537 70 2
20538 62 1
20539 70 1
20540 38 1
20541 58 1
20542 70 1
20543 70 1
20544 63 1
20545 46 1
20545 54 1
20546 52 1
20546 65 1
20546 70 1
20547 51 1
20548 44 1
20548 61 1
20549 70 1
20550 61 1
20551 2 1
20552 49 1
20553 68 1
20554 17 1
20554 25 1
20555 31 1
20556 10 1
20556 70 1
20557 25 1
20558 54 1
20559 25 1
20560 61 1
20560 62 1
20561 38 1
20562 48 1
20563 52 1
20564 44 1
20565 13 1
20565 62 1
20566 70 1
20567 45 1
20568 45 2
20569 34 1
20569 70 1
20570 45 1
20571 54 1
20572 9 1
20573 70 1
20574 18 1
20575 30 2
20576 30 1
20577 38 1
20578 6 1
20579 38 2
20579 62 1
20580 58 1
20581 1 1
20581 63 1
20583 62 1
20584 68 1
20585 70 1
20586 52 1
20587 13 1
20587 32 1
20587 34 1
20587 60 1
20587 61 1
20587 68 1
20587 70 4
20588 25 1
20588 51 1
20589 65 1
20590 33 1
20591 45 1
20592 52 1
20593 70 1
20594 18 1
20595 52 1
20596 52 1
20597 17 1
20597 38 1
20597 70 1
20598 58 1
20599 71 1
20600 62 1
20601 71 1
20602 70 3
20603 60 1
20603 70 1
20604 52 1
20605 52 1
20606 13 1
20607 12 1
20607 48 1
20607 54 1
20607 70 1
20607 71 1
20608 34 1
20609 51 1
20610 68 1
20611 54 1
20612 71 1
20613 9 1
20614 60 1
20615 52 1
20616 25 1
20617 4 1
20618 60 1
20619 45 1
20620 54 1
20621 25 1
20622 59 1
20622 71 1
20623 70 1
20624 60 1
20625 70 1
20626 52 1
20627 2 1
20628 49 1
20629 48 1
20630 46 1
20631 54 1
20632 59 1
20632 60 1
20633 51 1
20634 38 1
20635 71 1
20636 2 1
20637 49 1
20638 52 1
20639 52 1
20640 58 1
20641 48 1
20642 70 1
20643 70 1
20644 39 1
20645 54 1
20645 70 2
20646 62 1
20646 72 1
20647 45 1
20648 4 1
20649 2 1
20650 54 1
20650 58 1
20651 38 1
20651 45 1
20651 52 1
20652 70 1
20653 20 1
20653 61 1
20654 70 1
20655 51 1
20656 30 1
20656 71 1
20657 65 1
20658 51 1
20659 62 1
20660 10 1
20661 62 1
20662 40 1
20663 32 1
20664 62 1
20665 45 1
20665 48 1
20666 9 1
20666 20 1
20667 38 1
20668 51 1
20668 52 1
20669 25 1
20670 71 1
20671 13 1
20672 12 1
20673 38 1
20674 58 1
20675 70 1
20676 60 1
20677 38 1
20678 48 1
20678 68 1
20679 45 1
20680 62 1
20681 54 1
20682 65 1
20683 31 1
20684 70 1
20685 10 1
20686 54 1
20687 32 1
20687 39 2
20687 70 1
20688 55 1
20689 70 1
20690 62 1
20690 68 1
20691 70 1
20692 51 1
20692 58 1
20693 45 1
20694 54 1
20696 32 1
20696 45 1
20696 51 1
20697 20 1
20698 4 1
20699 5 1
20699 18 1
20699 62 1
20700 62 1
20701 38 1
20702 58 1
20703 39 1
20704 58 1
20705 54 1
20706 71 1
20707 70 1
20708 43 1
20709 34 1
20710 40 1
20711 52 1
20712 62 1
20713 54 1
20714 9 1
20714 70 1
20715 58 1
20716 52 1
20717 43 1
20718 40 1
20719 38 1
20720 34 1
20720 70 1
20721 71 1
20722 31 1
20722 54 1
20723 59 1
20724 52 1
20724 70 1
20725 54 1
20726 71 1
20728 62 1
20729 52 1
20730 52 1
20731 58 1
20731 68 2
20732 45 1
20733 33 1
20734 4 1
20735 60 1
20736 26 1
20737 61 1
20738 41 1
20739 51 1
20739 60 1
20740 38 1
20741 54 1
20742 62 1
20742 71 1
20743 52 1
20743 62 1
20744 61 1
20745 30 1
20746 32 1
20747 58 1
20748 70 1
20749 34 1
20750 25 1
20750 70 1
20751 65 1
20752 38 1
20753 51 1
20754 51 1
20755 30 1
20756 54 1
20757 62 1
20758 4 1
20758 34 1
20758 71 1
20759 70 1
20760 70 1
20761 70 1
20762 60 1
20763 18 1
20764 4 1
20765 4 1
20765 54 1
20766 25 1
20766 32 1
20767 54 1
20768 51 1
20769 38 1
20769 54 1
20770 59 1
20770 70 1
20771 18 1
20772 47 1
20772 48 1
20773 4 1
20774 5 1
20775 18 1
20776 71 1
20777 30 1
20778 54 1
20779 70 1
20780 13 1
20781 70 1
20782 43 1
20782 71 1
20783 23 1
20784 45 1
20785 6 1
20786 24 1
20787 38 1
20788 5 1
20788 52 1
20788 70 1
20789 48 1
20790 31 1
20791 45 1
20791 58 1
20792 13 1
20792 70 1
20793 6 1
20794 6 1
20795 51 1
20795 54 1
20796 65 1
20797 62 1
20798 41 1
20798 58 2
20798 61 1
20799 44 2
20799 52 1
20799 70 2
20800 52 1
20801 31 1
20802 38 1
20802 70 1
20803 51 1
20803 62 1
20804 51 1
20805 58 1
20805 59 1
20806 38 1
20807 46 1
20808 45 1
20809 70 1
20810 38 1
20811 54 1
20812 51 1
20813 30 1
20813 70 1
20814 54 1
20814 68 1
20815 38 1
20816 38 1
20817 71 1
20818 38 1
20819 68 1
20821 20 1
20821 25 1
20821 71 1
20822 41 1
20823 54 1
20824 52 1
20825 34 1
20826 45 1
20827 55 1
20828 45 1
20829 25 1
20830 52 1
20831 65 1
20832 68 1
20833 13 2
20833 61 1
20834 20 1
20835 25 1
20836 24 1
20836 68 1
20836 70 1
20837 71 1
20838 38 1
20839 48 1
20840 55 2
20841 52 1
20842 10 1
20843 30 1
20844 70 1
20845 49 1
20845 63 1
20846 13 1
20847 54 1
20848 17 1
20848 38 1
20849 13 1
20849 20 1
20850 12 1
20850 70 1
20851 70 1
20851 71 1
20852 25 1
20853 54 1
20853 68 1
20854 24 1
20855 71 1
20856 45 1
20857 20 1
20857 49 1
20858 52 1
20859 34 1
20860 18 1
20860 58 1
20861 13 1
20861 59 1
20862 62 1
20863 71 1
20865 18 1
20866 45 1
20866 52 1
20866 65 1
20867 58 1
20868 65 1
20869 60 1
20870 70 1
20871 48 1
20872 55 1
20873 38 1
20873 71 1
20874 62 1
20875 51 1
20876 68 1
20877 70 1
20878 38 1
20878 48 1
20879 49 1
20880 25 1
20881 48 1
20882 23 1
20882 70 1
20883 32 1
20884 54 1
20885 46 1
20885 52 1
20886 13 1
20886 24 1
20886 48 1
20886 60 1
20887 70 1
20888 51 1
20889 6 1
20889 70 1
20891 54 1
20892 18 1
20893 54 1
20894 4 1
20895 48 1
20896 46 1
20896 49 1
20897 71 1
20898 70 1
20899 70 1
20900 71 1
20901 62 1
20902 45 1
20902 70 1
20903 54 1
20904 44 1
20905 6 1
20905 25 1
20906 49 1
20907 58 1
20908 52 1
20908 70 1
20909 70 1
20910 70 1
20911 34 1
20912 70 1
20913 67 1
20913 70 1
20914 68 1
20915 70 1
20916 12 1
20917 30 1
20918 20 1
20918 70 1
20919 70 1
20920 68 1
20921 59 1
20922 70 1
20923 71 1
20924 20 1
20924 48 1
20925 71 1
20926 48 1
20927 48 1
20928 51 1
20929 17 1
20929 52 1
20929 61 1
20930 52 1
20931 34 1
20931 54 1
20932 70 1
20933 54 1
20934 51 1
20934 59 1
20935 61 1
20936 70 1
20937 4 1
20938 71 1
20939 58 1
20940 45 1
20941 71 1
20942 31 1
20943 62 1
20944 4 1
20945 18 1
20946 9 1
20947 45 1
20947 55 1
20948 54 1
20950 40 1
20951 34 1
20952 52 1
20952 60 1
20953 13 1
20954 52 1
20955 45 1
20956 58 1
20957 71 1
20959 71 1
20960 62 1
20961 71 1
20962 5 1
20964 70 1
20965 70 1
20966 70 1
20967 31 1
20968 12 1
20969 46 1
20969 54 1
20970 54 1
20971 26 1
20972 25 1
20973 32 1
20974 13 1
20975 23 1
20975 43 1
20975 45 1
20975 46 1
20975 58 1
20976 51 1
20977 18 1
20978 38 1
20979 62 1
20980 54 1
20982 38 1
20983 70 1
20984 18 1
20985 45 1
20986 18 1
20986 52 1
20987 70 1
20988 34 1
20988 48 1
20988 70 1
20989 25 1
20990 52 1
20992 33 1
20992 62 1
20993 51 2
20994 59 1
20995 70 1
20996 30 1
20997 43 1
20998 52 1
20999 52 2
21000 49 1
21001 60 1
21004 51 1
21005 21 1
21005 30 1
21006 65 1
21007 45 1
21008 21 1
21009 4 1
21009 62 1
21010 58 1
21010 62 1
21011 48 1
21011 65 1
21011 70 1
21012 70 1
21013 38 1
21015 71 1
21016 2 1
21017 62 1
21018 41 1
21019 20 1
21020 65 1
21021 54 1
21022 54 1
21023 51 1
21024 13 1
21025 58 1
21025 70 1
21026 52 1
21026 71 1
21027 32 1
21028 52 1
21029 18 1
21029 58 1
21030 61 2
21031 23 1
21031 40 1
21032 70 1
21033 34 1
21034 24 1
21035 34 1
21036 38 1
21037 13 1
21037 20 1
21038 61 1
21039 70 2
21040 6 1
21041 49 1
21041 62 1
21042 26 1
21043 30 1
21044 70 1
21045 38 1
21045 51 1
21046 52 1
21047 55 1
21048 33 1
21049 51 1
21050 51 1
21051 8 1
21052 61 1
21053 68 1
21054 52 1
21055 34 1
21056 70 1
21056 71 1
21057 60 1
21058 13 1
21059 59 1
21059 70 1
21060 70 1
21061 52 1
21062 30 1
21064 54 1
21065 70 1
21066 25 1
21067 52 1
21068 5 1
21069 38 1
21070 71 1
21071 13 1
21072 62 1
21073 10 1
21073 68 1
21074 70 2
21075 54 2
21076 4 1
21077 30 1
21078 62 1
21079 52 1
21080 71 1
21081 10 1
21082 25 1
21083 54 1
21083 70 1
21084 23 1
21085 4 1
21086 62 1
21088 70 1
21089 70 1
21090 70 1
21091 49 1
21092 54 1
21092 65 1
21093 70 1
21094 48 1
21095 70 1
21096 52 1
21097 70 1
21098 51 1
21099 4 1
21100 20 1
21101 62 1
21102 60 1
21103 71 1
21104 54 1
21104 71 1
21105 32 1
21106 71 1
21107 58 1
21108 52 1
21109 48 1
21110 31 1
21111 30 1
21112 58 1
21113 38 1
21113 42 1
21114 60 1
21115 30 2
21116 54 1
21117 6 1
21118 62 2
21119 60 1
21120 63 1
21121 51 1
21122 71 1
21123 13 1
21123 62 1
21123 63 1
21124 70 1
21125 60 1
21126 38 1
21126 48 1
21127 54 1
21128 13 1
21129 58 1
21130 20 1
21131 5 1
21132 65 1
21133 38 1
21133 51 1
21133 62 1
21133 65 1
21133 70 1
21134 48 1
21135 70 2
21136 13 1
21137 70 2
21138 2 1
21139 9 1
21139 54 1
21140 52 1
21141 54 1
21142 70 1
21143 71 1
21144 69 1
21145 48 1
21146 4 1
21147 51 1
21147 70 1
21148 71 1
21149 70 1
21150 48 1
21150 70 1
21151 70 1
21152 45 1
21153 52 1
21154 34 1
21155 38 1
21156 5 1
21157 71 1
21158 12 1
21159 32 1
21160 52 1
21161 52 1
21163 45 1
21164 51 1
21165 32 1
21166 48 1
21167 6 1
21168 5 1
21169 60 1
21170 45 1
21171 25 1
21172 51 1
21174 24 1
21175 21 1
21176 18 1
21177 45 1
21178 70 1
21179 43 1
21180 70 1
21181 65 1
21182 13 1
21183 20 1
21184 71 1
21185 38 1
21186 51 1
21187 68 1
21188 51 1
21189 38 1
21190 18 1
21191 70 1
21192 43 1
21193 68 1
21194 54 1
21195 5 1
21195 54 1
21195 70 1
21196 38 1
21196 52 1
21197 41 1
21198 20 1
21199 60 1
21201 45 1
21202 25 1
21203 38 1
21204 52 1
21205 62 1
21206 54 1
21206 71 1
21207 55 1
21208 17 1
21209 12 1
21210 54 1
21211 38 1
21212 5 1
21212 70 1
21214 4 1
21215 9 1
21216 70 1
21217 18 1
21217 38 1
21217 52 1
21217 54 2
21217 68 1
21218 51 1
21219 51 1
21220 32 1
21221 10 1
21222 54 1
21223 68 1
21223 70 1
21224 63 1
21225 68 1
21226 45 1
21226 70 1
21227 13 1
21228 43 1
21228 70 1
21229 34 1
21229 49 1
21229 70 1
21230 48 1
21231 10 1
21232 52 1
21233 24 1
21234 54 1
21235 70 1
21236 38 1
21237 51 1
21238 70 1
21239 60 1
21240 62 1
21241 62 1
21242 59 1
21243 70 1
21244 70 1
21244 71 1
21245 24 1
21246 62 1
21247 45 1
21248 52 1
21249 71 1
21250 70 1
21251 43 1
21251 70 1
21252 6 1
21253 30 1
21254 62 1
21255 60 1
21256 30 1
21257 70 1
21258 6 1
21259 70 1
21260 38 1
21261 4 1
21262 52 1
21263 54 1
21264 71 1
21265 4 1
21265 51 1
21266 34 1
21267 52 1
21268 30 1
21269 43 1
21271 52 1
21272 68 1
21273 48 1
21274 70 1
21275 20 1
21275 52 1
21276 13 1
21277 4 1
21277 34 1
21278 11 1
21278 13 1
21278 71 1
21279 70 1
21280 40 1
21281 25 1
21282 70 1
21283 71 1
21284 70 1
21285 30 1
21286 54 1
21287 52 1
21288 54 1
21289 38 1
21290 25 1
21290 48 1
21291 60 1
21292 32 1
21293 24 1
21294 31 1
21295 51 1
21296 30 1
21297 54 1
21298 31 1
21299 51 1
21300 51 1
21301 55 1
21302 20 1
21303 52 1
21304 70 2
21305 43 1
21306 70 1
21307 12 1
21307 45 1
21308 70 2
21309 60 1
21310 71 1
21311 26 1
21312 71 1
21313 70 1
21314 61 1
21315 54 1
21316 34 1
21316 58 1
21317 68 1
21318 61 1
21319 64 1
21320 51 1
21321 49 1
21322 70 1
21323 54 1
21324 54 1
21325 21 1
21325 25 1
21325 51 1
21325 62 1
21325 69 1
21326 38 1
21327 10 1
21327 45 1
21328 70 1
21329 38 1
21330 58 1
21331 62 1
21332 62 1
21333 60 1
21334 41 1
21335 60 1
21336 54 1
21337 30 1
21337 70 1
21338 25 1
21338 63 1
21339 52 1
21340 20 1
21341 43 1
21341 52 1
21342 45 1
21343 52 1
21343 70 1
21344 25 1
21344 52 1
21345 49 1
21346 38 1
21347 68 1
21348 48 1
21349 30 1
21350 54 1
21350 59 1
21351 9 1
21352 55 1
21353 38 1
21354 20 1
21355 38 1
21356 52 1
21357 38 2
21358 65 1
21359 70 1
21360 62 1
21361 52 1
21363 70 1
21364 25 1
21364 45 1
21365 5 1
21365 63 1
21366 34 1
21367 70 1
21368 45 1
21369 31 1
21369 62 1
21370 31 1
21370 54 1
21370 70 1
21371 14 1
21372 23 1
21373 62 1
21373 71 1
21374 13 1
21375 49 1
21376 25 1
21376 60 1
21377 25 1
21378 49 1
21379 71 2
21380 38 1
21380 70 1
21381 60 1
21382 60 1
21383 2 1
21384 71 1
21385 14 1
21386 34 1
21387 13 1
21388 68 1
21389 14 1
21389 63 1
21390 52 1
21391 41 1
21392 51 1
21393 54 1
21394 38 1
21395 24 1
21395 38 1
21396 38 1
21397 54 1
21397 68 1
21398 23 1
21399 38 1
21400 18 1
21401 32 1
21401 43 1
21401 62 1
21402 38 1
21402 68 1
21403 40 1
21404 30 1
21405 70 1
21406 71 1
21407 12 1
21407 48 1
21408 58 1
21409 20 1
21410 13 1
21411 70 1
21412 52 1
21413 52 1
21414 59 1
21415 70 1
21416 38 2
21417 38 1
21418 70 1
21419 62 1
21420 45 1
21421 30 1
21421 31 1
21422 38 1
21422 54 1
21423 13 1
21424 70 1
21425 30 1
21426 70 1
21427 70 1
21428 38 1
21429 60 1
21430 25 1
21430 52 1
21431 70 1
21432 32 1
21433 52 1
21434 40 1
21434 43 1
21434 49 1
21435 72 1
21436 20 1
21437 52 1
21437 70 1
21438 45 1
21439 4 1
21440 70 1
21441 51 1
21442 39 1
21443 71 1
21444 24 1
21445 14 1
21446 31 1
21447 34 1
21448 2 1
21449 45 1
21449 52 1
21450 68 2
21451 62 1
21452 70 1
21453 45 1
21454 38 1
21454 57 1
21455 25 1
21456 70 1
21457 70 1
21458 38 1
21458 70 1
21459 51 1
21460 12 1
21461 65 1
21462 18 1
21462 59 1
21463 45 1
21464 62 1
21465 6 1
21466 5 1
21467 54 1
21468 34 1
21468 62 1
21468 70 1
21469 38 1
21470 33 1
21471 54 1
21472 48 1
21473 58 1
21474 54 1
21475 43 1
21475 70 1
21476 70 1
21477 52 1
21478 54 1
21479 62 1
21480 45 1
21480 52 1
21481 6 1
21481 70 1
21482 70 1
21483 25 1
21484 17 1
21485 38 1
21486 38 1
21486 61 1
21487 48 1
21488 62 1
21489 55 1
21489 58 1
21490 51 1
21491 65 1
21492 13 1
21492 52 1
21494 70 1
21495 20 1
21496 12 1
21496 62 1
21497 40 1
21498 52 1
21499 70 1
21500 54 1
21501 12 1
21501 55 1
21501 70 1
21502 38 1
21503 70 1
21504 44 1
21505 34 1
21506 20 1
21507 43 1
21508 12 1
21508 13 1
21508 18 1
21508 20 1
21508 30 1
21508 33 1
21508 38 4
21508 41 1
21508 51 2
21508 52 1
21508 59 1
21508 60 2
21508 62 2
21508 70 3
21508 71 2
21509 52 1
21510 38 1
21511 52 1
21512 59 1
21513 41 1
21514 52 1
21514 71 1
21515 44 1
21516 30 1
21516 31 1
21517 63 1
21518 51 1
21519 70 1
21520 59 1
21521 43 1
21522 55 1
21523 2 1
21524 34 1
21525 55 1
21525 65 1
21526 71 1
21527 70 1
21528 58 1
21529 55 1
21530 61 1
21531 70 1
21532 70 1
21533 51 1
21534 17 1
21534 70 1
21535 68 1
21536 70 1
21537 71 1
21538 67 1
21539 31 1
21539 62 1
21540 39 1
21541 45 1
21541 52 1
21542 52 1
21543 40 1
21544 48 1
21545 62 1
21546 6 1
21547 45 1
21548 45 1
21548 58 1
21548 70 1
21549 59 1
21549 65 1
21551 71 1
21552 30 1
21552 71 1
21553 65 1
21554 17 1
21554 44 1
21554 45 1
21555 43 1
21555 70 1
21556 30 1
21556 31 1
21556 70 1
21557 57 1
21557 70 1
21558 45 1
21559 25 1
21560 38 1
21561 6 1
21562 17 1
21563 45 1
21564 52 1
21564 70 1
21565 59 1
21566 62 1
21567 70 1
21568 51 1
21569 18 1
21570 13 1
21570 43 1
21571 45 1
21572 25 1
21573 70 1
21574 52 1
21575 38 1
21575 59 1
21576 70 1
21577 52 1
21578 65 1
21579 62 1
21579 70 1
21580 51 1
21580 70 1
21581 45 1
21581 63 1
21582 60 1
21583 54 1
21584 52 1
21585 54 1
21586 60 1
21587 18 1
21588 2 2
21588 38 1
21588 51 1
21588 52 1
21588 54 1
21588 62 1
21588 70 2
21589 71 1
21590 7 1
21591 62 1
21592 54 1
21593 63 1
21594 31 1
21594 51 1
21594 52 1
21594 54 1
21594 70 2
21595 70 1
21596 20 1
21596 70 1
21597 30 3
21597 31 2
21597 43 1
21597 51 1
21597 54 1
21597 62 1
21598 62 1
21599 48 1
21599 51 1
21600 49 1
21601 54 1
21602 25 1
21603 70 1
21603 71 1
21604 52 1
21605 71 1
21606 68 1
21607 62 1
21608 52 1
21609 13 1
21610 1 1
21611 25 1
21612 25 1
21613 54 1
21614 70 1
21615 58 1
21616 13 1
21617 51 1
21618 25 1
21619 49 1
21620 32 1
21621 34 1
21621 49 1
21622 48 1
21623 70 1
21624 45 1
21625 70 1
21626 46 1
21627 13 1
21627 38 1
21627 45 1
21627 52 1
21627 70 2
21628 70 1
21629 25 1
21629 70 1
21630 38 1
21631 45 1
21632 24 1
21633 54 1
21635 71 1
21636 71 1
21637 5 1
21637 54 1
21638 54 1
21639 70 1
21640 12 1
21641 62 1
21642 38 1
21642 62 1
21642 70 1
21643 38 1
21644 52 1
21645 58 1
21646 52 1
21647 32 1
21648 5 1
21650 54 1
21651 25 1
21652 61 1
21653 2 1
21654 54 1
21655 70 1
21656 54 1
21657 58 1
21658 13 1
21659 65 1
21660 46 1
21661 43 1
21662 70 1
21663 52 1
21663 54 1
21664 71 1
21665 34 1
21666 38 2
21666 59 1
21667 31 1
21667 46 1
21668 12 1
21668 54 1
21669 54 1
21670 9 1
21670 49 1
21671 70 1
21672 62 1
21673 70 1
21674 52 1
21675 62 1
21676 34 1
21677 71 1
21678 70 1
21679 62 1
21680 70 1
21681 2 1
21682 51 1
21683 25 1
21684 59 1
21685 48 1
21686 38 1
21687 54 1
21688 70 1
21689 20 1
21690 45 1
21691 45 1
21692 25 1
21692 54 1
21693 70 1
21694 38 1
21694 60 1
21695 40 1
21696 25 1
21696 38 1
21697 20 1
21698 38 1
21700 62 1
21701 65 1
21702 59 1
21703 52 2
21704 41 1
21705 62 1
21706 61 1
21707 30 1
21707 68 1
21708 4 1
21709 70 1
21710 51 1
21711 59 1
21712 46 1
21712 71 1
21713 70 1
21714 52 1
21715 70 1
21716 62 1
21717 30 1
21718 31 1
21719 25 1
21720 62 1
21721 59 1
21722 20 1
21723 70 1
21724 26 1
21725 62 1
21726 13 1
21726 26 1
21726 54 1
21728 70 1
21729 70 1
21730 60 1
21731 30 1
21731 70 1
21732 70 1
21733 4 1
21734 54 1
21735 4 1
21736 61 1
21737 70 1
21738 45 1
21739 68 1
21740 61 1
21741 62 1
21742 49 1
21743 54 1
21744 52 1
21745 48 1
21746 70 1
21747 62 1
21748 52 1
21748 70 1
21748 71 1
21749 52 1
21750 54 1
21751 62 1
21752 13 1
21752 62 1
21753 45 1
21753 68 1
21754 52 1
21755 38 1
21756 6 1
21757 4 1
21758 38 1
21759 12 1
21760 4 1
21760 5 1
21761 70 1
21763 58 1
21764 18 1
21765 70 1
21766 33 1
21767 13 1
21768 6 1
21769 70 1
21770 52 1
21771 5 1
21772 55 1
21773 9 1
21774 68 1
21775 6 1
21776 39 1
21776 49 1
21776 52 1
21776 68 1
21776 70 1
21776 71 1
21777 52 1
21778 71 1
21779 40 1
21780 32 1
21780 48 1
21781 57 1
21782 60 1
21783 65 1
21784 51 1
21785 24 1
21785 43 1
21786 31 1
21786 70 1
21787 51 1
21788 52 1
21788 60 1
21788 70 2
21789 13 1
21790 54 1
21791 70 1
21792 22 1
21792 31 1
21792 32 1
21793 70 1
21794 15 1
21795 4 1
21796 45 1
21797 72 1
21798 13 1
21799 34 1
21800 13 1
21800 60 1
21801 70 1
21802 70 2
21803 70 1
21804 52 1
21804 70 1
21805 52 1
21806 52 1
21806 70 1
21807 28 1
21807 52 1
21808 70 1
21809 52 1
21810 52 1
21811 32 1
21812 38 1
21813 70 1
21814 52 1
21815 62 1
21816 12 1
21816 24 1
21816 52 1
21817 20 1
21817 25 1
21818 25 1
21818 70 1
21819 71 1
21820 5 1
21821 70 1
21822 12 1
21822 18 1
21823 25 1
21824 24 1
21825 55 1
21826 59 1
21826 63 1
21827 48 1
21828 20 1
21829 52 1
21830 32 1
21831 9 1
21832 65 1
21833 42 1
21833 70 1
21834 71 1
21835 10 1
21836 52 1
21837 32 1
21838 70 1
21839 38 1
21839 62 1
21840 38 1
21840 62 1
21841 38 1
21841 48 1
21842 54 1
21843 38 1
21843 61 1
21844 71 1
21845 65 1
21846 55 1
21847 58 1
21848 70 1
21849 55 1
21850 6 1
21851 37 1
21852 31 1
21853 71 1
21854 38 1
21854 45 1
21856 43 1
21856 62 1
21857 14 1
21857 20 1
21857 62 1
21858 40 2
21859 45 1
21860 45 1
21861 23 1
21861 52 1
21862 70 1
21863 43 1
21864 51 1
21865 51 1
21865 70 1
21866 4 1
21867 71 1
21868 51 1
21869 70 1
21870 71 1
21871 52 1
21872 49 1
21873 48 1
21874 70 1
21875 32 1
21876 55 1
21877 68 1
21878 52 1
21879 30 1
21880 13 1
21881 30 1
21882 32 1
21883 70 1
21884 31 1
21885 54 1
21885 60 1
21886 9 1
21887 65 1
21888 51 1
21889 30 1
21890 71 1
21891 55 1
21892 65 1
21892 70 1
21893 68 1
21894 4 1
21895 4 1
21895 70 1
21896 44 1
21897 13 1
21898 32 1
21899 51 1
21899 52 1
21900 20 1
21901 5 1
21902 38 1
21903 38 1
21903 58 1
21903 70 1
21904 61 1
21905 71 1
21906 45 1
21907 71 1
21908 20 1
21909 55 1
21910 71 1
21911 70 1
21912 68 1
21913 70 1
21914 9 1
21914 55 1
21915 55 1
21916 70 1
21917 68 1
21918 31 1
21918 70 1
21919 51 1
21920 52 1
21921 62 1
21922 45 1
21923 20 1
21924 58 1
21925 38 1
21926 6 1
21927 70 1
21928 52 2
21929 70 1
21930 45 1
21930 54 1
21931 60 2
21932 54 1
21933 48 1
21934 4 1
21934 45 1
21934 54 1
21935 43 1
21936 20 1
21937 52 1
21938 25 1
21939 71 1
21940 38 1
21941 70 1
21942 45 1
21943 70 1
21944 47 1
21945 17 1
21946 68 1
21947 38 1
21948 65 1
21949 45 1
21950 70 1
21951 70 1
21952 52 1
21952 65 1
21953 9 1
21954 32 1
21955 71 1
21956 70 1
21957 70 2
21958 34 1
21959 70 1
21960 60 1
21961 71 1
21962 65 1
21963 45 1
21964 71 2
21965 38 1
21965 62 1
21966 25 1
21967 38 1
21968 45 1
21969 62 1
21970 45 1
21971 62 1
21972 30 1
21973 70 1
21975 70 1
21976 45 1
21976 68 1
21977 62 1
21978 54 1
21979 52 1
21980 49 1
21981 71 1
21982 70 1
21983 71 1
21984 70 1
21985 52 1
21986 65 1
21987 20 1
21988 38 1
21988 70 1
21989 52 1
21989 70 1
21990 71 1
21991 12 1
21992 70 1
21993 4 1
21994 6 1
21995 20 1
21996 51 1
21997 62 1
21999 4 1
21999 18 1
22000 40 1
22001 71 1
22002 6 1
22003 13 1
22004 45 1
22005 58 1
22006 4 1
22007 71 1
22008 51 1
22009 9 1
22010 70 1
22011 41 1
22012 71 1
22013 12 1
22014 54 1
22015 70 1
22016 38 1
22017 13 1
22017 51 1
22018 39 1
22019 69 1
22020 40 1
22021 38 1
22022 54 1
22023 6 1
22024 33 1
22025 62 1
22026 62 1
22026 70 1
22027 32 1
22027 48 1
22028 71 1
22029 25 1
22030 20 1
22030 54 1
22031 58 1
22031 70 1
22032 62 1
22033 12 1
22033 32 1
22034 70 1
22035 32 1
22036 70 1
22037 70 1
22038 51 1
22039 68 1
22040 54 1
22041 62 1
22042 70 2
22043 38 1
22044 59 1
22045 62 1
22046 4 1
22046 5 1
22046 13 2
22046 41 1
22046 43 1
22046 48 1
22046 51 1
22046 52 3
22046 62 1
22046 70 1
22047 61 1
22048 20 1
22049 70 1
22050 71 1
22051 25 1
22052 34 1
22053 2 2
22053 46 1
22054 43 1
22054 54 1
22055 70 1
22056 51 1
22057 70 1
22058 31 1
22059 12 1
22060 70 1
22061 70 1
22062 62 1
22063 23 1
22063 52 1
22064 70 1
22065 52 2
22066 33 1
22067 70 1
22068 54 2
22069 59 1
22069 70 1
22070 38 1
22070 52 2
22070 54 1
22071 54 1
22072 25 1
22073 54 1
22074 60 1
22075 5 1
22076 71 1
22077 51 1
22077 62 1
22078 60 1
22079 61 1
22080 52 1
22081 52 1
22082 62 1
22083 70 1
22084 70 1
22085 13 1
22086 62 1
22087 54 1
22088 38 1
22088 45 1
22088 54 1
22089 55 1
22090 58 1
22091 43 1
22092 70 1
22093 68 1
22094 65 1
22095 31 1
22096 20 1
22097 70 1
22098 13 1
22099 13 1
22100 38 1
22100 62 1
22101 34 1
22102 43 1
22103 20 1
22103 33 1
22104 38 1
22105 55 1
22106 52 1
22107 62 1
22107 71 1
22108 52 1
22109 45 1
22110 61 1
22111 61 1
22112 38 1
22113 24 1
22114 62 1
22115 13 1
22115 70 1
22116 45 1
22117 62 1
22118 54 1
22119 65 1
22120 71 1
22121 38 1
22122 70 1
22123 2 1
22124 54 1
22124 70 1
22125 20 1
22125 52 1
22126 62 1
22127 48 1
22128 70 1
22129 38 1
22130 9 1
22131 34 1
22131 70 1
22132 71 1
22133 25 1
22133 49 1
22133 70 1
22134 39 1
22134 71 1
22135 30 1
22136 32 1
22136 41 1
22136 55 1
22137 25 1
22138 58 1
22139 52 1
22140 52 1
22141 34 1
22142 71 2
22143 45 1
22145 62 1
22146 62 1
22147 38 1
22148 59 1
22149 61 1
22150 52 1
22151 70 1
22152 39 1
22153 46 1
22153 51 1
22154 6 1
22154 71 1
22155 25 1
22156 54 1
22157 37 1
22158 49 1
22159 62 1
22160 54 1
22161 9 1
22162 54 1
22163 4 1
22164 34 1
22165 9 1
22166 38 1
22167 48 1
22168 32 1
22168 51 1
22169 25 1
22170 62 1
22171 71 1
22172 60 1
22173 51 1
22174 9 1
22174 52 1
22174 60 1
22175 52 1
22176 44 1
22177 68 1
22178 9 1
22179 70 1
22180 49 1
22181 71 1
22182 45 1
22182 52 1
22183 70 1
22184 38 1
22185 48 1
22186 4 1
22186 54 1
22187 18 1
22188 70 2
22189 13 1
22189 17 1
22189 54 1
22190 71 1
22191 48 1
22192 45 1
22193 51 1
22194 38 1
22194 51 1
22195 71 1
22196 13 1
22196 62 1
22197 31 1
22197 62 1
22198 30 1
22199 45 1
22200 65 1
22201 71 1
22202 52 1
22203 34 1
22204 52 1
22205 25 1
22206 70 1
22207 31 1
22208 62 1
22209 62 1
22210 62 1
22211 43 1
22211 65 1
22212 12 2
22212 48 1
22213 54 1
22214 60 1
22215 9 1
22215 20 1
22216 68 1
22217 45 1
22218 52 1
22219 61 1
22220 70 1
22221 45 1
22222 30 1
22223 45 2
22224 70 1
22225 38 1
22226 42 1
22227 25 1
22228 30 1
22230 58 1
22231 43 1
22232 68 1
22233 51 1
22234 9 1
22235 52 1
22236 45 1
22237 62 1
22239 2 1
22239 48 1
22240 38 1
22241 70 1
22242 70 1
22243 71 1
22244 62 1
22244 70 1
22245 13 1
22246 54 1
22247 25 1
22248 70 1
22249 54 1
22250 60 1
22251 38 1
22252 51 1
22252 54 1
22253 70 1
22254 13 1
22255 51 1
22256 19 1
22257 33 1
22258 63 1
22259 60 1
22260 14 1
22261 32 1
22262 54 1
22263 38 1
22263 47 1
22264 32 1
22265 71 1
22266 71 1
22267 70 1
22268 62 1
22269 49 1
22269 70 1
22270 13 1
22270 52 1
22271 51 1
22272 20 1
22272 49 1
22273 45 1
22274 71 1
22275 40 1
22276 41 1
22277 60 1
22278 4 1
22279 38 1
22280 5 1
22281 48 1
22281 54 1
22282 70 1
22283 70 1
22284 60 1
22284 70 2
22285 40 1
22286 58 1
22286 71 1
22287 31 1
22287 48 1
22288 70 1
22289 58 1
22290 71 1
22291 13 1
22292 65 1
22293 13 1
22293 70 1
22294 71 1
22295 20 1
22295 45 1
22296 68 1
22297 70 2
22298 62 1
22299 68 1
22299 70 1
22300 20 1
22301 70 1
22302 44 1
22303 13 1
22304 71 1
22305 62 1
22306 9 1
22307 4 1
22308 51 1
22309 68 1
22310 38 1
22310 61 1
22311 70 1
22312 33 1
22313 60 1
22314 6 1
22315 30 1
22316 70 1
22317 70 1
22318 45 1
22319 51 1
22320 25 1
22320 70 2
22321 4 1
22322 54 1
22323 31 1
22324 37 1
22325 52 1
22326 70 1
22327 37 1
22327 70 1
22328 28 1
22329 15 1
22330 40 1
22331 61 1
22332 70 1
22333 62 1
22334 31 1
22335 64 1
22336 34 1
22337 2 1
22338 38 1
22339 38 1
22340 45 1
22341 71 1
22342 40 1
22342 70 1
22343 45 1
22344 70 1
22345 13 1
22346 70 1
22347 60 1
22347 70 1
22348 13 1
22349 18 1
22349 52 1
22349 70 1
22350 70 1
22351 33 1
22352 51 1
22353 45 1
22353 70 1
22354 32 1
22355 51 1
22356 54 1
22357 52 1
22357 54 1
22358 38 1
22359 70 1
22360 65 1
22361 51 1
22361 62 1
22362 70 1
22363 67 1
22364 48 1
22365 38 1
22366 70 1
22367 70 1
22368 68 1
22369 65 1
22370 70 1
22371 60 1
22372 62 1
22373 62 1
22374 52 1
22375 60 1
22376 70 1
22377 52 1
22378 70 1
22379 60 1
22379 70 1
22380 4 1
22381 68 1
22382 62 1
22383 10 1
22384 12 1
22385 71 1
22386 71 1
22387 70 1
22388 20 1
22389 38 1
22390 70 1
22391 43 1
22392 4 1
22393 62 1
22394 45 1
22395 68 1
22396 5 1
22397 34 1
22397 45 1
22398 52 1
22399 70 1
22400 4 1
22401 38 1
22401 65 1
22402 5 1
22402 63 1
22402 70 1
22403 25 1
22404 12 1
22405 51 1
22406 38 1
22406 62 2
22406 70 1
22407 54 1
22408 17 1
22409 51 1
22410 43 1
22411 48 1
22412 45 1
22413 62 1
22414 54 1
22415 51 1
22416 61 1
22416 70 1
22417 52 1
22418 62 1
22419 70 2
22420 13 1
22421 61 1
22422 5 1
22423 30 1
22424 24 1
22425 71 1
22426 61 1
22427 30 1
22428 52 1
22428 70 1
22429 45 1
22430 52 1
22430 70 1
22431 30 1
22431 34 1
22432 52 1
22434 60 1
22435 38 1
22436 31 1
22437 38 1
22437 70 1
22438 48 1
22439 23 1
22440 54 1
22441 34 1
22442 9 1
22443 68 1
22444 71 1
22445 38 1
22446 68 1
22447 38 1
22448 18 1
22449 17 1
22449 71 1
22450 65 1
22451 55 1
22452 38 1
22453 70 1
22454 20 1
22454 70 1
22455 60 1
22456 43 1
22457 4 1
22458 41 1
22459 52 1
22460 20 1
22461 70 1
22462 61 1
22463 38 1
22463 70 1
22464 52 1
22465 6 1
22465 52 1
22466 70 1
22466 71 1
22467 45 1
22468 44 1
22469 32 1
22469 49 1
22469 60 1
22469 70 1
22470 70 1
22471 45 1
22472 51 1
22473 25 1
22474 63 1
22475 12 1
22475 71 1
22476 70 1
22477 34 1
22477 62 1
22478 43 1
22479 30 1
22479 31 1
22480 54 1
22481 58 1
22482 70 1
22483 49 1
22484 45 1
22485 44 1
22486 43 1
22486 62 1
22487 55 1
22488 61 1
22489 54 1
22490 62 1
22492 38 1
22493 51 1
22494 68 1
22495 25 1
22496 55 1
22497 32 1
22497 40 1
22497 62 1
22498 9 1
22499 55 1
22500 52 1
22501 9 1
22502 9 1
22503 18 1
22504 18 1
22504 60 1
22504 71 1
22505 25 1
22505 45 1
22506 68 1
22507 45 1
22508 13 1
22508 44 1
22508 49 1
22509 58 1
22510 12 1
22511 25 1
22511 45 1
22512 4 1
22513 5 1
22514 38 1
22515 62 1
22516 52 1
22517 70 1
22518 70 1
22519 70 1
22520 20 1
22520 62 1
22521 43 1
22522 45 1
22523 62 1
22524 38 1
22525 30 1
22526 9 1
22527 59 1
22528 38 1
22528 62 1
22529 70 1
22530 63 1
22531 9 1
22531 13 2
22531 40 1
22531 54 2
22531 56 1
22531 61 1
22531 70 1
22532 61 1
22533 45 1
22533 70 1
22534 5 1
22535 17 1
22536 40 1
22537 6 1
22538 43 1
22539 48 2
22540 25 1
22541 70 1
22542 4 1
22543 45 1
22544 38 1
22545 62 1
22546 5 1
22547 54 1
22548 52 1
22549 5 1
22549 70 1
22550 70 1
22551 71 1
22552 70 1
22553 52 1
22554 4 1
22555 30 1
22556 45 1
22557 41 1
22558 13 1
22559 20 1
22560 25 1
22561 49 1
22561 54 1
22562 62 1
22563 62 1
22564 70 1
22565 43 1
22566 70 1
22567 9 1
22568 49 1
22569 30 1
22569 45 1
22569 70 1
22570 51 1
22571 70 1
22572 63 1
22573 13 1
22574 70 1
22575 54 1
22576 60 1
22576 63 1
22577 54 1
22578 70 1
22580 51 1
22581 24 1
22582 69 1
22583 26 1
22583 58 1
22584 33 1
22585 70 1
22586 52 1
22587 70 1
22588 62 1
22589 39 2
22590 70 1
22591 71 1
22592 9 1
22593 68 1
22594 4 1
22595 43 1
22596 52 1
22597 18 1
22598 4 1
22599 71 1
22600 58 1
22600 70 1
22601 20 1
22601 51 1
22602 31 1
22603 39 1
22604 34 1
22604 70 1
22605 70 1
22606 44 1
22606 70 1
22607 62 1
22608 60 1
22609 70 1
22610 34 1
22611 9 1
22611 23 1
22612 14 1
22613 9 1
22614 30 1
22615 70 1
22616 68 1
22617 70 1
22618 71 1
22619 70 1
22620 20 1
22621 40 1
22621 62 1
22622 70 1
22623 68 1
22624 25 1
22625 20 1
22626 51 1
22627 38 1
22628 70 1
22629 54 1
22630 20 1
22631 68 1
22631 70 1
22632 12 1
22633 45 1
22634 71 1
22635 13 1
22636 70 1
22637 63 1
22638 9 1
22638 71 1
22639 32 1
22640 52 1
22641 71 1
22642 70 1
22643 70 1
22644 63 1
22645 52 1
22646 52 1
22647 48 1
22647 49 1
22647 62 1
22648 59 1
22648 60 1
22649 61 1
22650 25 1
22650 54 1
22650 59 1
22651 34 1
22652 13 1
22653 71 2
22654 71 1
22655 25 1
22656 24 1
22657 45 1
22658 54 1
22659 30 1
22660 38 1
22661 70 1
22662 59 1
22663 70 1
22664 70 1
22665 45 1
22665 70 1
22666 70 1
22667 70 2
22668 25 1
22669 45 1
22670 2 1
22670 20 1
22671 62 1
22672 40 1
22673 51 1
22673 70 1
22674 52 1
22675 70 1
22676 73 1
22677 70 1
22678 31 1
22679 4 1
22680 51 1
22681 46 1
22682 45 1
22683 52 1
22684 9 1
22685 41 1
22685 70 1
22686 20 1
22686 70 1
22687 13 1
22688 71 1
22689 70 1
22690 25 1
22691 54 1
22692 52 1
22693 55 1
22694 70 1
22695 57 1
22696 55 1
22697 38 1
22698 34 1
22699 20 1
22699 60 1
22699 62 1
22700 54 1
22701 70 1
22702 52 1
22703 2 1
22703 4 2
22703 5 1
22703 10 1
22703 13 1
22703 24 1
22703 25 1
22703 30 4
22703 31 2
22703 32 2
22703 38 2
22703 43 1
22703 44 1
22703 52 1
22703 54 2
22703 68 1
22703 70 1
22704 68 1
22705 71 1
22706 9 1
22706 18 1
22706 55 1
22706 70 1
22707 52 2
22707 70 1
22708 70 1
22709 25 1
22709 70 1
22710 62 1
22711 43 1
22712 70 1
22713 70 1
22714 20 1
22715 45 1
22716 41 1
22716 68 1
22717 9 1
22718 62 1
22719 34 1
22720 25 1
22721 6 1
22722 68 1
22723 55 1
22724 70 1
22725 43 1
22726 20 1
22726 48 1
22727 70 1
22728 38 1
22729 61 1
22730 62 1
22731 70 1
22732 20 1
22733 30 1
22734 54 1
22735 34 1
22736 63 1
22737 43 1
22738 70 1
22739 43 1
22740 70 1
22741 30 1
22742 38 1
22743 13 1
22744 14 1
22744 52 2
22745 54 1
22746 38 1
22747 49 1
22748 70 1
22749 58 1
22750 24 1
22751 13 1
22751 70 1
22752 4 1
22753 20 1
22754 70 1
22755 3 1
22757 13 1
22758 62 1
22759 52 1
22760 68 1
22761 33 1
22762 70 1
22763 62 1
22764 70 1
22765 52 1
22766 63 1
22767 52 1
22768 54 1
22769 71 1
22770 60 1
22770 70 1
22771 60 1
22772 9 1
22773 45 1
22773 70 1
22774 13 1
22774 31 1
22774 45 1
22774 62 1
22774 69 1
22774 70 1
22775 52 1
22775 63 1
22776 32 1
22777 30 1
22777 48 1
22777 52 1
22777 70 1
22778 4 1
22778 62 1
22779 51 1
22780 62 1
22781 31 1
22782 48 1
22782 70 1
22783 45 1
22784 51 1
22785 62 1
22786 65 1
22787 45 1
22788 17 1
22788 68 1
22789 34 1
22790 43 1
22790 51 1
22791 6 1
22792 71 1
22793 38 1
22794 54 1
22794 70 1
22795 62 1
22796 9 1
22796 38 1
22797 52 1
22798 52 1
22799 12 1
22800 59 1
22801 30 1
22801 52 1
22802 9 1
22803 20 1
22803 54 1
22804 54 1
22805 70 1
22806 60 1
22806 62 1
22808 13 2
22808 62 1
22809 13 1
22810 4 1
22811 2 1
22811 70 1
22811 71 1
22812 71 1
22813 30 1
22814 38 1
22814 52 1
22814 70 1
22816 14 1
22817 54 1
22818 71 1
22819 59 1
22820 41 1
22821 70 1
22821 71 1
22822 70 1
22823 62 1
22824 45 1
22825 70 1
22826 45 1
22826 62 1
22826 70 2
22827 52 1
22828 38 1
22829 54 1
22830 54 1
22831 45 1
22833 6 1
22833 65 1
22834 57 1
22835 12 1
22835 70 1
22836 13 1
22836 54 1
22837 48 1
22838 38 1
22839 51 1
22840 30 1
22840 60 1
22841 61 1
22842 59 1
22842 62 1
22843 49 1
22844 62 1
22845 38 1
22846 38 1
22847 70 1
22848 52 1
22848 70 1
22849 70 1
22850 70 1
22851 51 1
22852 63 1
22853 54 2
22854 52 1
22855 2 1
22856 55 1
22857 14 1
22857 45 1
22858 52 1
22859 9 1
22860 4 1
22861 60 1
22862 12 1
22863 62 1
22864 9 1
22865 62 1
22866 70 1
22867 60 1
22867 70 1
22868 4 1
22869 13 1
22870 31 1
22870 70 1
22871 45 1
22872 70 1
22873 71 1
22874 12 1
22874 65 1
22875 20 1
22876 38 1
22877 70 1
22878 70 1
22879 6 1
22880 30 1
22881 70 1
22882 52 1
22883 51 1
22884 68 1
22885 59 1
22886 51 1
22886 65 2
22887 38 2
22888 55 1
22889 26 1
22890 13 1
22891 70 1
22892 48 1
22893 10 1
22894 49 1
22895 51 1
22896 45 1
22899 6 1
22899 39 1
22900 60 1
22900 65 1
22901 60 2
22902 54 1
22902 63 1
22903 25 1
22904 70 1
22905 70 1
22906 70 1
22907 70 1
22908 25 1
22909 46 1
22910 20 1
22911 33 1
22913 71 1
22914 30 1
22915 52 1
22916 52 1
22917 61 1
22918 6 1
22918 10 1
22918 12 1
22918 45 4
22918 48 1
22918 51 1
22918 52 3
22918 61 1
22918 62 3
22919 38 1
22920 48 1
22920 71 1
22921 70 1
22922 9 1
22923 60 1
22923 61 1
22923 70 1
22924 60 1
22924 63 1
22925 52 1
22926 57 1
22927 24 1
22928 24 1
22928 45 1
22928 71 1
22929 12 1
22930 52 1
22931 70 1
22932 62 1
22933 24 2
22934 58 1
22935 70 1
22936 20 1
22937 51 1
22938 70 1
22939 52 1
22940 54 1
22941 71 1
22942 30 1
22943 52 1
22944 60 1
22945 62 1
22946 54 1
22947 51 1
22948 38 1
22949 25 1
22950 18 1
22951 45 1
22952 51 1
22953 62 1
22954 38 1
22954 45 1
22955 4 1
22956 6 1
22956 51 1
22957 38 1
22958 47 1
22959 60 1
22960 70 1
22961 10 1
22961 41 1
22961 55 1
22962 70 1
22963 13 1
22963 62 1
22965 45 1
22965 62 1
22965 70 1
22966 38 1
22967 62 1
22968 51 1
22969 25 1
22970 70 1
22971 31 1
22971 70 1
22972 68 1
22973 20 1
22974 54 1
22975 41 1
22976 55 1
22977 45 1
22977 61 1
22978 51 1
22978 61 1
22979 25 1
22980 62 1
22981 43 1
22981 63 1
22981 68 1
22982 6 1
22983 60 1
22983 70 1
22984 6 1
22984 34 1
22985 51 1
22986 63 1
22987 25 1
22988 70 1
22989 71 1
22990 49 1
22991 30 1
22991 58 1
22992 54 1
22992 70 1
22993 18 1
22994 70 1
22995 70 1
22996 34 1
22996 70 1
22997 70 1
22998 48 1
22999 57 1
23000 52 1
23000 62 1
23001 10 1
23002 52 1
23002 71 1
23003 70 1
23004 41 1
23005 41 1
23005 70 1
23006 62 1
23007 9 1
23008 12 1
23008 25 1
23009 48 1
23010 18 1
23011 71 1
23012 54 1
23013 61 1
23014 52 1
23015 5 1
23015 20 1
23015 72 1
23016 34 1
23017 6 1
23018 62 1
23019 14 1
23020 10 1
23021 13 1
23021 52 1
23022 68 1
23023 48 1
23024 6 1
23025 38 1
23026 44 1
23026 68 1
23026 70 1
23027 45 1
23028 45 1
23029 21 2
23029 59 1
23030 52 1
23031 62 1
23032 6 1
23033 13 1
23034 25 1
23035 45 1
23035 62 1
23036 38 1
23036 55 1
23037 9 1
23038 61 1
23039 6 1
23040 62 1
23041 71 2
23042 25 1
23043 54 1
23044 2 1
23044 69 1
23045 52 1
23045 58 1
23046 70 1
23047 9 1
23048 9 1
23049 70 1
23050 55 1
23051 20 1
23052 12 1
23053 51 1
23053 62 1
23054 65 1
23055 9 1
23056 38 1
23057 30 1
23058 52 1
23059 39 1
23060 59 1
23061 31 1
23061 54 1
23061 70 1
23062 65 1
23063 70 1
23064 18 1
23064 48 1
23064 62 1
23065 38 1
23066 6 1
23067 52 1
23067 68 1
23068 70 1
23070 68 1
23071 68 1
23072 12 1
23073 62 1
23074 70 1
23075 13 1
23076 43 1
23077 54 1
23078 60 1
23078 70 1
23079 23 1
23079 34 1
23079 70 1
23080 59 1
23081 20 1
23081 52 1
23082 51 1
23082 52 1
23083 60 1
23084 52 1
23085 62 1
23086 52 1
23087 71 1
23088 30 1
23089 73 1
23090 59 1
23091 30 1
23091 67 1
23092 70 1
23093 70 1
23094 20 1
23095 54 1
23096 43 1
23097 23 1
23099 70 1
23100 17 1
23101 70 1
23102 32 1
23102 62 1
23103 58 1
23103 60 1
23104 52 1
23105 4 1
23105 25 1
23105 31 2
23105 40 1
23105 43 1
23105 51 1
23105 61 1
23105 70 1
23106 12 1
23107 52 1
23108 51 1
23109 23 1
23110 58 1
23111 24 1
23112 70 1
23113 54 1
23114 9 1
23115 51 1
23116 33 1
23117 13 1
23118 6 1
23119 71 1
23120 52 1
23121 70 1
23122 61 1
23123 52 1
23124 71 1
23125 13 1
23125 48 1
23125 71 1
23126 18 1
23127 68 1
23128 51 1
23129 32 1
23130 70 1
23131 6 1
23132 45 1
23133 51 1
23134 70 1
23135 71 1
23136 55 1
23137 41 1
23138 51 1
23139 70 1
23140 54 1
23141 52 1
23141 68 1
23142 45 1
23143 60 1
23144 45 1
23145 38 1
23146 38 1
23147 45 1
23148 30 1
23148 62 1
23149 2 1
23150 5 1
23150 44 1
23150 45 1
23150 52 2
23150 55 1
23150 61 1
23150 70 1
23150 71 1
23151 54 1
23152 12 1
23152 54 1
23152 71 1
23153 45 1
23154 52 1
23155 70 1
23156 34 1
23157 12 1
23158 12 1
23158 20 1
23158 70 1
23159 40 1
23160 4 1
23161 52 1
23163 13 1
23164 55 1
23165 4 1
23166 12 1
23166 48 1
23167 48 1
23168 54 1
23169 2 1
23170 20 1
23170 48 1
23171 18 1
23172 51 1
23173 65 1
23174 67 1
23175 70 1
23176 38 1
23177 51 1
23178 9 1
23179 25 1
23180 18 1
23180 70 1
23181 23 1
23181 52 1
23182 46 1
23183 25 1
23184 68 1
23185 60 1
23186 58 3
23186 62 1
23187 52 1
23187 73 1
23188 30 1
23189 70 1
23190 38 1
23191 52 1
23192 6 1
23193 4 1
23193 38 1
23194 63 1
23195 32 1
23196 6 1
23197 20 1
23198 70 1
23199 13 1
23200 30 1
23200 70 1
23201 63 1
23202 45 1
23203 61 1
23204 48 1
23205 41 1
23206 12 1
23206 30 1
23206 38 1
23206 43 1
23206 51 1
23206 61 1
23206 70 1
23207 12 1
23207 51 1
23208 48 1
23208 54 1
23209 4 1
23209 48 1
23209 57 1
23210 20 1
23211 25 1
23211 52 1
23212 46 1
23213 70 1
23214 62 1
23215 45 1
23216 68 1
23217 45 1
23218 26 1
23219 41 1
23220 30 1
23220 55 1
23220 70 1
23221 4 1
23221 9 1
23222 51 1
23223 52 1
23224 26 1
23224 51 2
23224 71 2
23225 23 1
23226 32 1
23226 38 1
23227 62 1
23228 20 1
23229 58 1
23230 4 1
23231 25 1
23232 51 1
23233 70 1
23234 25 1
23235 70 1
23236 70 1
23237 2 1
23238 30 1
23239 2 1
23240 34 1
23242 30 1
23243 25 1
23244 9 1
23245 6 1
23246 70 1
23247 31 1
23247 34 1
23248 70 1
23249 54 1
23250 71 1
23251 30 1
23252 62 1
23253 70 2
23254 41 1
23255 31 1
23256 70 2
23257 6 1
23258 52 1
23260 62 1
23261 52 1
23262 13 1
23263 71 1
23264 45 1
23265 61 1
23266 20 1
23267 61 1
23268 25 1
23268 70 1
23269 18 1
23270 45 1
23271 54 1
23272 70 1
23273 25 1
23273 70 1
23274 52 1
23275 33 1
23276 33 1
23277 18 1
23277 54 1
23278 31 1
23279 72 1
23280 55 1
23280 70 1
23281 38 1
23282 17 1
23282 70 1
23283 48 1
23284 20 1
23285 55 1
23286 13 1
23287 20 1
23287 43 1
23288 45 1
23289 46 1
23290 71 1
23291 70 1
23292 43 1
23293 4 1
23294 68 1
23295 30 1
23296 54 1
23297 9 1
23297 52 1
23298 38 1
23298 44 1
23299 12 1
23300 62 1
23301 34 1
23302 62 1
23302 68 1
23303 24 2
23304 70 1
23305 13 1
23306 42 1
23307 31 1
23308 52 1
23309 70 1
23310 70 1
23311 62 1
23312 52 1
23313 70 1
23314 61 2
23315 41 1
23315 70 1
23316 70 1
23317 54 1
23319 52 1
23320 30 1
23320 38 1
23321 51 1
23321 52 1
23322 24 1
23323 70 1
23324 70 1
23325 3 1
23326 4 1
23326 63 1
23327 49 1
23328 48 1
23329 62 1
23330 4 1
23330 59 1
23331 38 1
23332 71 1
23333 38 1
23334 55 1
23335 62 1
23335 71 1
23336 52 1
23337 33 1
23338 49 1
23340 51 1
23340 70 1
23341 52 1
23342 25 1
23343 25 1
23344 52 1
23345 54 1
23346 4 1
23348 45 1
23348 70 1
23349 52 1
23350 18 2
23351 52 1
23352 70 1
23352 71 1
23353 61 1
23354 54 1
23355 48 1
23356 13 1
23356 70 1
23357 6 1
23358 63 1
23358 70 1
23360 58 1
23361 70 1
23362 70 1
23363 63 1
23364 43 1
23365 49 1
23366 58 1
23367 31 1
23369 68 1
23370 38 1
23371 58 1
23372 38 1
23373 63 1
23374 32 1
23375 49 1
23376 62 1
23377 20 1
23377 58 1
23378 70 1
23379 52 1
23380 52 1
23381 54 2
23382 70 1
23383 62 1
23384 62 1
23385 43 1
23385 50 1
23386 6 1
23387 70 2
23388 25 1
23389 52 1
23390 54 1
23391 45 1
23392 4 1
23392 45 1
23393 55 1
23393 70 1
23394 2 1
23395 4 1
23396 34 1
23397 52 2
23398 23 1
23399 25 1
23400 60 1
23401 59 1
23402 45 1
23403 59 1
23404 70 1
23405 71 1
23406 71 1
23407 61 1
23408 70 1
23409 45 1
23409 70 1
23410 45 1
23411 48 1
23412 30 1
23413 45 1
23414 54 1
23416 48 1
23417 70 2
23418 37 1
23419 62 1
23420 60 1
23421 70 1
23422 54 1
23423 52 1
23424 70 1
23425 38 1
23426 41 1
23427 9 1
23427 20 1
23427 45 2
23428 38 1
23429 38 1
23430 54 1
23431 13 1
23432 24 1
23433 58 1
23434 70 1
23435 62 1
23436 12 1
23437 23 1
23438 45 1
23438 62 1
23439 68 1
23440 71 1
23441 52 1
23442 70 1
23443 61 1
23444 61 1
23445 70 1
23446 70 1
23449 70 1
23450 70 1
23452 38 1
23452 63 1
23453 49 1
23454 68 1
23455 71 1
23456 70 1
23457 60 1
23457 70 1
23459 43 1
23459 71 1
23461 20 1
23462 70 1
23463 70 1
23463 71 1
23464 71 1
23465 30 1
23466 13 2
23467 18 1
23468 62 1
23469 63 1
23470 63 1
23471 70 1
23472 51 1
23473 45 1
23473 70 1
23474 70 1
23475 38 1
23476 45 1
23477 51 1
23478 52 1
23478 54 1
23479 30 1
23479 48 1
23480 49 1
23481 20 1
23482 70 1
23483 71 1
23484 9 1
23484 41 1
23485 71 2
23486 60 1
23487 54 1
23488 58 1
23489 9 1
23490 38 1
23491 70 1
23492 70 1
23493 52 1
23494 24 1
23495 65 1
23496 6 1
23497 70 1
23497 71 1
23498 38 1
23499 70 1
23500 54 1
23501 65 1
23501 70 1
23502 62 1
23503 4 1
23504 61 1
23505 70 1
23506 12 1
23507 70 1
23508 54 1
23509 45 1
23510 60 1
23511 52 1
23512 60 1
23513 34 1
23514 24 1
23514 30 1
23514 46 1
23514 52 1
23515 62 1
23516 70 1
23517 31 1
23518 52 1
23518 60 1
23518 70 1
23519 34 1
23520 5 1
23520 43 1
23521 4 1
23521 51 1
23521 52 1
23521 55 1
23521 60 1
23521 70 6
23522 45 1
23523 13 1
23523 58 1
23524 45 1
23525 9 1
23526 60 1
23527 60 1
23528 45 1
23529 62 1
23530 51 1
23531 65 1
23532 4 1
23533 13 1
23534 14 1
23535 38 1
23536 54 1
23537 34 1
23537 52 1
23538 38 1
23538 65 1
23539 38 1
23539 58 1
23540 55 1
23541 52 1
23542 69 1
23543 70 1
23544 38 1
23545 45 1
23546 45 1
23547 34 1
23548 61 1
23549 54 1
23550 52 1
23551 70 1
23552 62 1
23553 32 1
23554 20 1
23555 70 1
23556 38 1
23556 60 1
23557 20 1
23557 38 1
23558 54 1
23559 70 1
23560 5 1
23561 34 1
23562 31 1
23563 38 1
23564 44 1
23564 51 1
23565 61 1
23566 13 1
23567 45 1
23568 4 2
23569 71 1
23570 51 1
23571 54 1
23572 9 1
23573 62 1
23574 58 1
23575 62 1
23576 9 1
23577 43 1
23578 51 1
23579 30 1
23580 20 1
23581 40 1
23582 45 1
23583 54 1
23584 6 1
23585 38 1
23586 70 1
23587 45 1
23588 30 1
23588 61 1
23588 65 1
23589 13 1
23590 52 1
23591 60 1
23592 25 1
23593 54 1
23594 18 1
23595 62 1
23596 62 1
23597 38 1
23597 60 1
23597 70 1
23598 70 1
23599 38 1
23600 38 1
23601 70 1
23602 54 1
23603 18 1
23604 34 1
23604 51 1
23605 60 1
23606 5 1
23608 70 1
23609 70 1
23610 71 1
23611 71 1
23612 43 1
23613 58 1
23614 18 1
23615 30 1
23616 51 1
23617 20 1
23618 70 1
23619 70 1
23621 48 1
23622 45 1
23623 65 1
23624 62 1
23625 70 1
23626 6 1
23627 4 1
23628 62 1
23629 54 1
23630 59 1
23631 58 1
23632 4 1
23633 70 1
23634 24 1
23634 51 1
23635 18 1
23636 49 1
23636 71 1
23637 38 1
23638 54 1
23639 70 1
23640 62 1
23641 58 1
23641 62 1
23642 68 1
23643 71 1
23644 48 1
23645 49 1
23646 40 1
23647 38 1
23649 71 1
23650 38 1
23651 9 1
23651 38 1
23651 58 1
23651 62 1
23651 71 1
23652 32 1
23653 71 1
23654 31 1
23655 52 1
23656 30 1
23657 20 1
23657 38 1
23657 70 1
23658 54 1
23659 70 1
23660 61 1
23661 62 1
23662 62 1
23663 49 1
23664 55 1
23664 70 2
23665 52 1
23666 70 1
23667 13 1
23668 31 1
23670 69 1
23671 34 1
23672 49 1
23673 62 1
23674 20 1
23675 71 1
23676 45 1
23677 60 1
23678 70 1
23679 54 1
23680 24 1
23680 34 1
23681 45 1
23682 33 1
23682 45 1
23682 51 1
23682 52 1
23682 58 1
23683 12 1
23684 70 1
23685 34 1
23685 52 1
23686 18 1
23687 51 1
23688 54 1
23689 52 1
23689 60 1
23689 62 1
23690 25 1
23690 70 1
23691 13 1
23691 24 1
23691 30 2
23691 31 1
23691 49 1
23691 61 1
23691 72 1
23692 51 1
23693 4 1
23694 62 1
23695 49 1
23696 38 1
23697 48 1
23698 70 1
23699 70 1
23700 70 1
23701 5 2
23701 45 1
23702 38 1
23703 30 1
23705 52 1
23707 68 1
23708 62 1
23709 54 1
23710 60 1
23711 62 1
23712 70 1
23713 54 1
23714 4 1
23715 70 1
23716 48 1
23717 63 1
23718 70 1
23719 52 1
23720 48 1
23721 70 1
23722 52 2
23723 45 1
23723 68 1
23724 30 1
23725 25 1
23726 30 1
23727 13 1
23727 70 1
23728 62 1
23729 20 1
23730 68 1
23731 21 1
23731 71 1
23732 71 1
23733 32 1
23734 43 1
23734 52 1
23735 52 1
23735 70 1
23736 31 1
23737 71 1
23738 25 1
23739 51 1
23740 55 1
23741 4 1
23742 61 1
23743 58 1
23744 60 1
23745 52 1
23746 54 1
23747 12 1
23748 38 1
23749 70 1
23749 71 1
23750 70 1
23751 20 1
23752 54 1
23753 61 1
23754 68 1
23755 65 1
23756 6 1
23757 9 1
23758 14 1
23759 51 1
23759 68 1
23759 71 1
23760 70 1
23761 52 1
23762 62 1
23763 12 1
23763 38 1
23764 30 1
23765 13 1
23766 70 2
23767 62 1
23768 38 1
23768 62 1
23769 30 1
23769 71 1
23770 70 1
23771 60 1
23772 48 1
23773 45 1
23774 52 1
23775 20 1
23776 10 1
23776 68 1
23777 25 1
23777 71 1
23779 52 1
23780 46 1
23781 48 1
23781 54 1
23783 70 1
23784 20 1
23784 62 1
23784 70 1
23785 20 1
23786 56 1
23787 58 1
23787 71 1
23788 52 1
23789 70 1
23790 20 1
23791 48 1
23792 48 1
23793 51 1
23794 4 1
23795 45 1
23796 13 1
23796 62 1
23797 51 1
23798 24 1
23799 12 1
23799 24 1
23799 62 1
23800 58 1
23801 70 1
23802 70 1
23803 62 1
23804 45 1
23804 52 1
23805 25 1
23805 45 1
23806 38 1
23807 43 1
23808 18 1
23809 39 1
23809 70 1
23810 70 1
23811 70 1
23812 52 1
23813 45 1
23814 54 1
23815 34 1
23815 38 1
23816 20 1
23817 71 1
23818 52 1
23819 20 1
23819 25 1
23819 30 1
23819 31 1
23819 32 1
23819 40 1
23819 43 1
23819 52 2
23819 54 2
23820 4 1
23821 18 1
23821 71 1
23822 51 1
23822 59 1
23823 6 1
23824 31 1
23825 4 1
23825 62 1
23826 61 1
23827 61 1
23828 18 1
23829 62 1
23830 62 1
23831 70 1
23833 65 1
23834 51 1
23835 18 1
23836 52 1
23836 58 1
23837 43 1
23837 51 1
23838 33 1
23839 6 1
23840 45 1
23841 70 1
23842 25 1
23843 38 1
23844 43 1
23845 62 1
23845 68 2
23846 24 1
23846 71 1
23847 58 1
23848 24 1
23848 71 1
23849 46 2
23850 12 1
23850 13 1
23850 31 1
23850 52 1
23850 70 2
23851 45 1
23852 4 1
23853 71 1
23854 62 1
23855 70 1
23856 38 1
23857 70 1
23858 71 1
23859 54 1
23860 30 1
23861 62 1
23862 70 2
23863 38 1
23864 52 1
23865 32 1
23866 52 1
23866 54 1
23867 13 1
23868 70 1
23869 52 1
23869 60 1
23870 71 1
23871 48 1
23872 63 1
23873 70 1
23874 70 1
23875 68 1
23876 54 1
23877 52 1
23877 63 1
23878 45 1
23878 62 1
23879 25 1
23880 70 1
23881 70 1
23882 54 1
23883 70 1
23884 25 1
23885 58 1
23886 58 1
23887 59 1
23888 70 1
23889 62 1
23890 38 1
23891 20 1
23891 62 1
23892 25 1
23892 70 1
23894 61 1
23895 68 1
23896 25 1
23896 30 1
23897 62 1
23898 9 1
23898 31 1
23898 48 1
23898 49 1
23898 58 1
23898 62 1
23899 52 1
23899 60 1
23900 54 1
23901 58 1
23902 70 1
23903 70 1
23904 70 1
23905 54 1
23906 4 1
23907 59 1
23908 70 1
23909 68 1
23910 54 1
23911 54 1
23912 51 1
23913 70 2
23914 52 1
23914 60 1
23915 20 1
23916 18 1
23917 61 1
23918 60 1
23919 68 1
23920 23 1
23921 52 1
23922 52 1
23923 54 1
23924 62 1
23925 5 1
23925 43 1
23926 43 1
23927 41 1
23928 70 1
23929 4 1
23929 34 1
23929 38 1
23930 52 1
23930 54 1
23931 61 1
23932 5 1
23933 31 1
23934 48 1
23935 51 1
23936 10 1
23936 38 1
23937 70 1
23938 24 1
23939 48 1
23940 68 1
23941 24 1
23942 41 1
23943 70 1
23944 60 1
23945 51 1
23946 25 1
23947 24 1
23948 70 1
23949 59 1
23950 70 1
23951 51 1
23952 71 1
23953 23 1
23954 20 1
23955 45 1
23956 38 1
23957 38 1
23958 45 1
23959 34 1
23960 13 1
23960 71 1
23961 13 1
23962 31 1
23963 4 1
23964 68 1
23964 71 1
23965 71 1
23966 65 1
23967 13 1
23968 67 1
23969 59 1
23970 43 1
23971 70 1
23972 52 1
23973 48 1
23974 54 1
23975 24 1
23976 65 1
23977 65 1
23978 52 1
23978 70 1
23979 52 1
23980 45 1
23981 46 1
23981 58 1
23982 58 1
23983 51 1
23984 70 1
23985 12 1
23985 52 1
23986 71 1
23987 70 1
23988 32 1
23989 34 1
23990 65 1
23991 68 1
23992 31 1
23993 59 1
23994 71 1
23995 30 1
23996 59 1
23997 62 1
23998 45 1
23999 62 1
24000 6 1
24000 71 1
24001 25 1
24002 58 1
24003 9 1
24004 51 1
24004 61 1
24004 70 1
24005 30 1
24006 38 1
24007 71 1
24008 68 1
24009 68 1
24010 32 1
24011 32 1
24011 63 1
24011 70 1
24012 43 1
24013 26 1
24014 70 2
24015 71 1
24016 38 1
24017 39 1
24017 70 1
24018 52 1
24018 70 1
24019 40 1
24020 25 1
24021 52 1
24022 70 1
24023 9 1
24023 43 1
24023 52 1
24024 45 1
24024 52 1
24025 38 1
24026 60 1
24027 70 1
24028 45 1
24028 62 1
24029 13 1
24030 45 1
24030 49 1
24031 39 2
24032 70 2
24033 30 1
24034 70 1
24035 20 1
24036 70 2
24037 62 1
24038 41 1
24039 45 1
24040 43 1
24041 62 1
24042 44 1
24043 70 1
24044 25 1
24045 6 1
24046 60 1
24047 49 1
24047 52 1
24048 70 1
24049 12 1
24050 52 1
24050 60 1
24051 68 1
24052 70 1
24053 61 1
24054 38 1
24054 58 1
24055 12 1
24056 70 1
24058 71 1
24059 38 1
24060 23 1
24060 45 1
24061 70 1
24062 71 2
24063 59 1
24064 54 1
24065 14 1
24066 58 1
24067 30 1
24068 62 1
24069 38 1
24069 51 1
24070 12 1
24071 52 1
24073 38 1
24073 52 1
24074 18 1
24074 24 1
24074 30 1
24074 31 1
24074 43 1
24074 51 1
24074 61 1
24074 63 1
24075 52 1
24076 33 1
24076 54 1
24077 34 1
24078 51 1
24078 52 1
24079 2 1
24079 54 1
24079 70 1
24080 45 1
24081 45 1
24082 43 1
24082 61 1
24083 13 1
24084 52 1
24084 54 1
24085 4 1
24085 63 1
24086 70 1
24087 25 1
24088 71 1
24089 48 1
24090 5 1
24091 70 1
24092 13 1
24092 58 1
24093 51 1
24094 70 1
24095 33 1
24096 62 1
24097 10 1
24098 62 1
24099 55 1
24100 62 1
24101 59 1
24102 20 1
24102 70 1
24102 71 1
24103 13 1
24104 4 1
24105 70 1
24106 70 1
24107 71 1
24108 70 1
24109 25 1
24110 9 1
24110 17 1
24111 60 1
24112 25 2
24113 70 2
24114 54 1
24115 52 1
24116 60 1
24117 18 1
24117 54 1
24118 20 1
24119 61 1
24120 70 1
24121 13 1
24122 54 1
24122 70 1
24123 52 1
24124 2 1
24124 4 1
24125 24 2
24125 25 1
24126 70 2
24127 58 1
24128 70 1
24129 20 1
24130 52 1
24131 52 1
24132 65 1
24133 45 1
24134 70 1
24135 71 1
24136 51 1
24136 68 1
24137 34 1
24138 30 1
24139 45 1
24140 18 1
24141 61 1
24141 62 1
24142 26 1
24143 71 1
24145 49 1
24146 70 1
24147 4 1
24148 62 1
24149 45 1
24150 52 1
24151 12 1
24152 65 2
24153 70 1
24154 62 1
24155 45 1
24156 6 1
24156 51 1
24157 38 1
24158 51 1
24159 58 1
24160 58 1
24160 61 1
24161 70 1
24162 25 1
24163 25 1
24164 6 1
24165 48 1
24166 45 2
24167 25 1
24168 49 1
24168 70 1
24169 68 1
24170 71 1
24171 52 1
24172 34 1
24173 70 1
24174 52 1
24175 52 1
24176 62 1
24177 54 1
24178 71 1
24179 68 1
24180 70 1
24181 70 1
24182 34 1
24183 25 1
24184 52 1
24185 51 1
24186 38 1
24186 70 1
24187 62 1
24188 54 1
24189 58 1
24190 54 1
24191 71 1
24192 70 1
24193 40 1
24193 60 1
24194 59 1
24195 4 1
24196 52 1
24197 25 1
24198 65 1
24199 58 1
24200 52 1
24201 30 1
24202 31 1
24203 70 1
24204 52 1
24205 51 1
24206 68 1
24207 12 1
24208 54 1
24209 62 1
24210 70 2
24211 70 1
24212 17 1
24213 32 1
24214 30 1
24214 71 1
24216 54 1
24217 49 1
24218 71 1
24220 54 1
24221 23 1
24222 13 1
24223 51 1
24223 58 1
24224 68 1
24224 70 1
24225 70 1
24226 52 1
24226 54 1
24227 14 1
24227 25 1
24228 62 1
24229 25 1
24230 51 1
24231 70 1
24232 71 1
24233 54 1
24234 61 1
24235 25 1
24236 48 1
24237 70 1
24238 20 1
24239 18 1
24239 20 2
24239 48 1
24240 5 1
24241 70 1
24242 71 1
24243 51 1
24244 20 1
24245 62 1
24246 51 1
24247 2 1
24248 59 1
24249 54 1
24250 52 1
24251 71 1
24252 30 1
24253 13 1
24254 38 1
24254 71 1
24255 62 1
24256 70 1
24257 60 1
24258 70 1
24259 52 1
24260 12 1
24261 45 1
24262 52 1
24263 61 1
24264 70 1
24265 30 1
24266 4 1
24267 52 1
24268 38 1
24268 71 1
24269 13 2
24270 55 1
24271 52 1
24272 52 1
24273 49 1
24274 52 1
24275 20 1
24276 14 1
24276 40 1
24277 5 1
24277 43 1
24277 52 1
24277 59 2
24278 60 1
24279 13 1
24280 45 1
24281 60 1
24282 30 1
24283 4 1
24283 12 1
24284 60 1
24284 70 1
24285 40 1
24286 51 1
24287 70 1
24288 45 1
24289 60 1
24289 71 1
24290 52 1
24291 13 1
24292 54 1
24293 61 1
24294 51 1
24295 51 1
24296 70 1
24297 40 2
24298 68 1
24299 60 1
24300 70 1
24300 71 1
24301 20 1
24302 2 1
24303 62 1
24304 38 1
24305 25 1
24305 55 1
24306 62 1
24307 18 1
24307 52 1
24308 38 1
24308 70 1
24309 71 1
24310 30 1
24311 18 1
24312 51 1
24313 13 1
24313 54 1
24314 30 1
24314 52 1
24315 70 1
24316 20 1
24317 62 1
24318 38 1
24319 52 1
24321 45 1
24322 30 1
24323 25 1
24324 52 1
24325 70 1
24326 70 1
24327 43 1
24329 48 1
24330 71 1
24331 6 1
24332 70 2
24333 61 1
24334 60 1
24335 62 1
24336 45 1
24337 62 1
24338 70 1
24339 51 1
24340 70 1
24341 4 1
24342 38 1
24343 25 1
24343 38 1
24344 70 1
24345 68 1
24346 38 1
24346 51 1
24347 30 2
24347 54 1
24347 58 1
24347 65 1
24348 31 1
24348 58 1
24349 58 1
24350 45 1
24350 51 1
24351 54 1
24352 71 1
24353 54 1
24354 30 1
24354 51 1
24355 30 2
24356 43 1
24356 54 2
24357 62 1
24358 25 1
24359 38 1
24360 44 1
24361 60 1
24362 45 1
24363 70 1
24364 46 1
24365 70 1
24366 38 1
24367 70 1
24368 12 1
24369 31 1
24370 12 1
24371 38 1
24371 48 1
24372 54 1
24372 71 1
24373 71 1
24374 52 1
24375 73 1
24376 32 1
24377 51 1
24378 38 1
24379 70 1
24380 32 1
24380 68 1
24381 38 2
24382 51 1
24384 48 1
24385 9 1
24386 38 1
24386 45 1
24387 20 1
24388 71 1
24389 38 1
24389 70 1
24390 48 1
24391 9 1
24392 58 1
24393 42 1
24394 70 1
24395 20 1
24396 9 1
24397 70 1
24398 13 1
24399 70 1
24400 4 1
24401 71 1
24402 38 1
24403 52 1
24404 34 1
24405 32 1
24406 52 1
24407 31 1
24407 32 1
24408 70 1
24409 38 1
24410 70 1
24411 60 1
24412 48 1
24413 54 1
24414 52 1
24415 32 1
24415 48 1
24416 70 1
24418 52 1
24419 48 1
24420 43 1
24421 13 1
24421 20 3
24421 30 1
24421 32 1
24421 45 2
24421 49 3
24421 61 3
24421 70 1
24422 18 1
24423 62 1
24424 4 1
24425 62 1
24426 52 1
24427 45 1
24428 4 1
24429 25 1
24430 68 1
24431 9 1
24432 51 1
24433 70 1
24434 34 1
24435 18 1
24436 18 1
24437 12 1
24438 4 1
24439 6 1
24440 34 1
24441 12 1
24442 60 1
24443 13 1
24443 45 1
24444 60 1
24445 31 1
24446 71 1
24447 34 1
24448 62 1
24449 71 1
24450 51 1
24450 68 1
24450 70 1
24451 38 2
24452 59 1
24453 41 1
24454 52 1
24455 49 1
24456 38 1
24457 30 1
24457 31 1
24458 9 1
24458 63 1
24459 48 1
24460 52 1
24461 18 1
24461 70 1
24462 55 1
24464 2 1
24464 20 1
24464 23 1
24464 25 3
24464 30 1
24464 31 1
24464 33 1
24464 38 1
24464 43 1
24464 45 1
24464 52 1
24464 54 1
24464 55 1
24464 59 2
24464 60 1
24464 62 2
24464 70 2
24465 71 1
24466 65 1
24467 20 1
24468 13 1
24468 25 1
24468 59 1
24468 70 1
24468 71 1
24469 70 1
24470 70 1
24471 38 1
24472 70 1
24473 71 1
24474 52 1
24475 4 1
24475 49 1
24477 20 1
24478 38 1
24479 54 1
24479 68 1
24480 2 1
24481 14 1
24482 62 1
24483 62 1
24484 10 1
24485 70 2
24486 13 2
24486 34 1
24488 2 1
24489 62 1
24490 44 1
24490 60 1
24491 60 1
24492 71 1
24493 70 1
24494 51 1
24495 70 1
24496 38 1
24497 45 1
24498 6 1
24498 20 1
24499 25 1
24500 4 1
24501 70 1
24502 52 1
24504 30 1
24504 62 1
24504 71 1
24505 12 1
24506 38 1
24507 32 1
24507 43 2
24508 38 1
24509 70 1
24510 71 1
24511 12 1
24512 70 1
24513 20 1
24514 51 1
24515 9 1
24516 21 1
24516 54 1
24517 61 1
24518 70 1
24519 54 1
24520 6 1
24521 52 1
24522 13 1
24523 41 1
24524 30 1
24525 70 1
24526 20 1
24527 71 1
24528 13 1
24529 54 1
24530 62 1
24531 44 1
24532 51 1
24533 34 1
24534 62 1
24535 70 1
24536 59 1
24537 48 1
24538 4 1
24539 25 1
24539 49 1
24540 71 1
24541 38 2
24542 38 1
24544 25 1
24545 13 1
24545 70 1
24546 49 1
24547 70 1
24548 24 1
24549 12 1
24550 45 1
24550 52 1
24551 60 1
24551 61 1
24552 52 1
24553 70 1
24554 70 1
24555 70 1
24556 51 1
24557 58 1
24558 70 1
24559 38 1
24560 48 1
24561 32 1
24562 38 1
24563 63 1
24564 68 1
24564 70 1
24565 54 1
24566 70 1
24567 69 1
24568 9 1
24568 20 1
24568 70 1
24569 6 1
24569 54 1
24570 71 1
24571 70 1
24572 62 1
24573 40 1
24574 4 1
24575 45 1
24576 54 1
24577 70 1
24578 52 1
24578 70 1
24579 51 1
24580 40 1
24581 30 1
24582 4 1
24583 38 1
24584 62 1
24585 68 1
24586 55 1
24587 31 1
24588 54 1
24588 62 1
24589 2 1
24590 71 1
24592 58 1
24592 63 1
24592 65 1
24593 13 1
24594 13 1
24595 38 1
24596 52 2
24596 70 1
24597 32 1
24598 51 1
24599 13 1
24600 63 1
24600 70 1
24601 5 1
24602 6 1
24602 18 1
24603 55 1
24604 1 1
24605 71 1
24606 70 1
24607 58 1
24608 13 1
24609 54 1
24610 34 1
24611 71 1
24612 54 1
24613 51 1
24613 68 1
24614 25 1
24615 4 1
24615 55 1
24616 65 1
24617 70 1
24618 70 1
24619 54 1
24620 31 1
24621 34 1
24622 5 1
24622 20 1
24623 41 1
24624 62 1
24625 20 1
24626 70 1
24627 62 1
24628 20 1
24629 52 1
24630 52 1
24631 62 1
24631 70 1
24632 70 1
24633 54 1
24634 45 1
24635 38 1
24636 70 1
24637 58 1
24638 6 1
24639 65 1
24640 70 1
24641 4 1
24641 18 1
24642 62 1
24643 18 1
24644 54 1
24645 45 1
24646 52 1
24647 52 1
24648 71 1
24649 65 1
24650 52 1
24651 60 1
24652 70 1
24653 51 1
24654 52 1
24655 52 1
24655 70 1
24656 38 1
24657 52 1
24658 32 1
24659 4 1
24660 20 1
24661 60 1
24662 20 1
24662 38 1
24662 70 1
24664 70 1
24665 44 1
24666 30 1
24666 62 1
24667 56 1
24668 38 1
24669 13 1
24669 20 1
24670 68 1
24671 54 1
24672 40 1
24673 52 1
24674 30 1
24675 52 1
24676 48 1
24677 34 1
24678 13 1
24679 30 1
24680 20 1
24681 52 1
24682 54 1
24683 70 1
24684 38 1
24684 62 1
24685 68 1
24686 52 1
24687 20 1
24687 70 1
24688 30 1
24689 63 1
24690 70 1
24691 70 1
24692 62 1
24693 20 1
24694 23 2
24694 70 1
24695 4 1
24696 45 1
24697 4 1
24698 70 1
24699 58 1
24700 33 1
24701 60 1
24702 70 1
24703 52 1
24704 68 1
24705 68 1
24706 43 1
24707 2 1
24708 39 1
24708 70 1
24709 19 1
24709 51 1
24709 60 1
24710 70 1
24711 32 1
24711 61 1
24712 4 1
24713 60 1
24714 70 1
24715 52 1
24716 38 1
24717 20 1
24718 54 1
24719 48 1
24720 52 1
24721 38 1
24721 62 2
24722 70 1
24723 55 1
24724 30 1
24725 10 1
24725 30 1
24725 52 1
24726 24 1
24727 54 1
24728 45 1
24729 70 1
24730 21 1
24730 30 1
24731 54 1
24732 70 1
24733 71 1
24734 62 1
24734 70 2
24735 52 1
24736 42 1
24737 54 1
24738 14 1
24739 70 1
24740 48 1
24741 34 1
24742 68 1
24743 70 1
24744 45 1
24745 70 1
24746 20 1
24746 38 1
24747 31 1
24748 31 1
24749 70 1
24750 38 1
24751 62 1
24752 60 1
24753 52 1
24754 62 1
24755 25 1
24756 2 1
24757 71 1
24758 70 1
24759 60 1
24760 61 1
24761 40 1
24762 13 1
24763 45 1
24764 39 1
24765 70 1
24766 70 1
24767 30 1
24767 54 1
24767 61 1
24768 10 1
24769 51 1
24770 48 1
24771 52 1
24772 55 1
24773 63 1
24774 38 1
24775 51 1
24776 71 1
24777 26 1
24778 38 1
24778 48 1
24779 70 1
24780 48 1
24781 70 2
24782 70 1
24783 54 1
24784 38 1
24785 38 1
24786 13 1
24787 30 1
24788 45 1
24789 62 1
24790 62 1
24790 70 1
24791 49 1
24792 52 2
24793 70 1
24794 45 1
24795 55 1
24796 14 1
24797 71 1
24798 3 1
24799 51 1
24800 40 1
24801 24 1
24802 45 1
24804 44 1
24805 70 1
24806 70 1
24807 70 1
24808 58 1
24808 70 1
24809 44 1
24810 61 1
24811 4 1
24812 62 1
24813 54 1
24813 62 1
24814 60 1
24815 62 1
24816 10 1
24817 51 1
24818 54 1
24819 70 1
24820 52 1
24821 70 1
24822 68 1
24823 13 1
24823 52 1
24824 62 1
24825 48 2
24826 45 1
24827 20 1
24828 70 4
24829 70 1
24830 12 1
24832 54 1
24833 62 1
24834 63 1
24834 70 1
24835 62 1
24836 30 1
24837 62 1
24838 45 1
24839 62 1
24840 45 1
24841 4 1
24842 70 1
24843 9 1
24844 45 1
24846 30 1
24847 54 1
24848 62 1
24849 70 1
24850 70 1
24851 18 2
24852 51 1
24853 18 1
24854 59 1
24855 25 1
24855 43 1
24856 40 1
24857 45 1
24858 54 1
24859 13 1
24860 43 1
24861 70 1
24862 6 1
24863 52 1
24864 48 1
24865 68 1
24866 41 1
24867 38 1
24868 18 1
24869 60 1
24870 70 1
24871 6 1
24872 70 1
24873 60 1
24874 39 1
24875 38 1
24876 13 1
24877 33 1
24878 61 1
24879 5 1
24881 27 1
24882 52 1
24883 52 1
24884 24 1
24885 12 1
24886 62 1
24887 70 1
24888 45 1
24889 20 1
24890 52 1
24891 45 1
24891 51 1
24892 51 1
24893 5 1
24894 33 1
24894 58 1
24894 60 1
24895 40 1
24896 68 1
24897 70 1
24899 70 1
24900 70 1
24901 62 1
24902 54 1
24903 70 1
24905 38 1
24906 4 1
24907 24 1
24908 59 1
24910 54 1
24911 45 1
24913 58 1
24914 48 1
24914 70 1
24915 34 1
24915 54 1
24916 54 1
24917 71 1
24918 70 1
24919 70 1
24920 51 1
24921 5 1
24922 23 1
24923 30 1
24923 70 1
24924 27 1
24925 71 1
24926 60 1
24927 58 1
24927 62 1
24928 70 1
24929 70 1
24931 51 1
24932 45 1
24933 54 1
24933 70 1
24934 62 1
24935 23 1
24936 4 1
24937 20 1
24938 71 1
24939 38 1
24940 38 2
24941 70 1
24942 45 1
24943 45 1
24944 24 1
24945 45 1
24945 49 1
24945 70 1
24946 51 1
24947 58 1
24948 55 1
24949 10 1
24950 54 1
24951 65 1
24952 52 1
24953 2 1
24954 51 1
24955 30 1
24956 40 1
24957 52 1
24958 10 1
24958 45 1
24958 70 1
24959 6 1
24959 70 2
24960 70 1
24960 71 1
24961 5 1
24961 38 1
24962 62 1
24963 54 1
24964 4 1
24965 38 2
24966 68 1
24967 38 1
24968 52 2
24969 52 1
24970 54 1
24971 4 1
24972 63 1
24973 68 1
24974 31 1
24975 39 1
24976 2 1
24976 38 1
24976 70 1
24977 34 1
24977 70 1
24978 65 1
24979 71 1
24980 70 1
24981 6 1
24982 51 1
24983 18 1
24983 54 1
24984 20 1
24985 58 1
24986 58 1
24987 52 1
24988 25 1
24988 60 1
24989 54 1
24990 30 1
24991 52 1
24991 60 1
24992 13 1
24992 45 1
24993 45 1
24994 23 1
24995 62 1
24996 30 1
24997 60 1
24998 70 1
24998 71 1
24999 31 1
25000 70 1
25001 20 1
25001 25 1
25002 51 1
25003 20 1
25003 70 1
25004 41 1
25005 71 1
25006 31 1
25006 38 1
25008 70 1
25009 38 2
25010 42 1
25010 70 1
25011 54 1
25012 43 1
25012 54 1
25013 70 2
25014 54 1
25015 9 1
25016 70 1
25017 41 1
25017 70 1
25018 58 1
25018 70 1
25019 20 1
25020 70 1
25021 69 1
25022 60 1
25023 65 1
25024 39 1
25025 5 1
25025 30 1
25026 70 1
25027 20 1
25027 62 1
25028 49 1
25029 45 1
25030 43 1
25030 45 1
25031 67 3
25031 71 1
25032 51 1
25033 70 1
25034 65 1
25035 4 1
25036 13 1
25036 58 1
25037 54 1
25038 38 1
25039 13 1
25040 44 1
25041 49 1
25042 4 1
25043 70 1
25044 12 1
25044 60 1
25045 58 1
25046 70 1
25047 45 1
25048 71 1
25049 38 1
25049 70 1
25050 58 1
25050 59 1
25050 70 2
25051 41 1
25051 62 1
25051 70 1
25052 2 1
25053 2 1
25053 60 1
25053 70 1
25054 42 1
25054 48 1
25055 70 1
25056 43 1
25057 58 1
25058 30 1
25059 38 1
25059 70 1
25060 30 1
25061 12 1
25062 34 1
25063 49 1
25064 34 1
25064 51 1
25065 25 1
25066 45 1
25066 58 1
25067 52 1
25068 38 1
25068 54 1
25069 62 1
25070 30 1
25070 43 1
25071 70 1
25072 70 1
25073 54 1
25074 68 1
25075 40 1
25076 68 1
25077 61 1
25078 71 1
25079 38 1
25080 25 1
25081 10 1
25082 62 1
25083 13 1
25084 49 1
25085 51 1
25085 52 1
25086 51 1
25087 68 1
25088 31 1
25089 68 1
25089 70 1
25090 68 1
25091 70 1
25092 70 1
25093 52 1
25094 43 1
25095 13 1
25096 70 1
25097 51 1
25098 2 1
25099 70 1
25100 70 1
25101 54 1
25102 71 1
25103 54 1
25104 70 1
25105 45 1
25106 71 1
25107 30 1
25108 6 1
25108 38 1
25109 2 1
25110 59 1
25111 48 1
25112 70 1
25113 71 2
25114 54 1
25114 70 1
25115 70 1
25117 63 1
25118 70 1
25119 30 1
25119 48 1
25119 54 1
25120 25 1
25120 70 1
25121 38 1
25122 70 1
25123 41 1
25123 70 1
25124 32 1
25125 41 1
25125 55 1
25126 45 1
25127 70 2
25128 30 1
25128 43 1
25129 62 1
25130 33 1
25131 70 1
25132 71 1
25133 13 1
25134 2 1
25134 18 1
25135 52 1
25136 51 1
25137 4 1
25137 52 1
25138 30 2
25139 20 1
25139 70 1
25140 51 1
25141 70 1
25142 40 1
25143 13 2
25143 62 1
25144 4 1
25144 62 1
25145 10 1
25146 54 1
25147 52 1
25148 4 1
25149 38 1
25150 65 1
25151 31 1
25151 62 1
25151 68 1
25152 62 1
25153 70 1
25154 9 2
25154 60 1
25155 48 1
25156 70 1
25157 62 1
25158 71 1
25159 70 1
25160 49 1
25161 62 1
25162 32 1
25163 39 1
25164 25 1
25165 38 1
25166 68 1
25167 38 1
25168 6 1
25169 30 1
25170 65 1
25171 62 1
25172 12 1
25173 71 1
25174 49 1
25174 52 1
25175 51 1
25176 49 1
25176 54 1
25176 58 1
25176 70 1
25177 13 1
25178 60 1
25179 4 1
25179 9 1
25180 70 1
25181 71 1
25182 20 1
25182 60 1
25182 71 1
25183 20 1
25183 70 1
25184 30 1
25185 48 1
25185 52 1
25185 68 1
25186 59 1
25187 24 1
25188 6 1
25189 24 1
25189 38 1
25189 52 1
25189 62 1
25189 65 1
25189 68 1
25189 70 2
25190 70 1
25191 60 1
25192 70 1
25193 31 1
25193 70 1
25194 58 1
25195 70 1
25196 20 1
25196 52 1
25197 70 1
25198 68 1
25199 45 1
25200 30 1
25201 18 1
25202 30 1
25203 39 1
25203 45 1
25204 70 1
25205 59 1
25206 54 1
25207 65 1
25208 52 1
25208 54 1
25209 54 1
25210 54 1
25211 2 1
25211 62 1
25212 13 1
25213 60 1
25214 12 2
25215 71 1
25216 52 1
25217 32 1
25218 70 1
25219 60 1
25220 45 1
25221 30 1
25221 38 1
25222 25 1
25223 54 1
25224 54 1
25225 5 1
25226 71 1
25227 4 1
25228 49 1
25229 45 1
25229 60 1
25230 70 1
25231 65 1
25232 58 1
25233 70 1
25234 62 1
25235 70 2
25236 6 1
25237 54 1
25238 14 1
25239 43 1
25240 38 1
25241 52 1
25242 46 1
25242 52 1
25242 65 1
25243 25 1
25243 45 1
25244 13 1
25244 43 1
25245 62 1
25246 60 1
25247 23 1
25248 54 1
25249 17 1
25250 38 1
25251 18 1
25252 20 1
25252 48 1
25253 25 1
25254 5 1
25255 70 1
25256 30 1
25257 38 1
25258 55 1
25259 70 1
25260 12 1
25261 54 1
25262 70 1
25263 45 1
25264 38 1
25265 62 1
25266 70 1
25267 70 1
25268 34 1
25268 70 1
25269 70 1
25270 71 1
25271 68 1
25272 70 1
25273 4 1
25273 33 1
25274 33 1
25275 41 1
25276 70 1
25277 55 1
25278 32 1
25279 45 1
25280 71 1
25281 38 1
25283 20 1
25283 62 1
25284 2 1
25284 6 1
25284 13 1
25284 20 1
25284 24 1
25284 30 3
25284 38 1
25284 51 3
25284 61 1
25284 70 1
25285 45 1
25286 71 1
25287 52 1
25288 30 1
25289 62 1
25289 65 1
25290 18 1
25291 30 1
25291 45 1
25292 20 1
25293 54 1
25294 30 1
25295 25 1
25296 51 1
25297 68 1
25298 30 1
25298 51 1
25299 71 1
25300 52 1
25301 48 1
25302 70 1
25304 70 1
25305 20 1
25306 55 1
25307 4 1
25308 25 1
25308 55 1
25309 70 1
25310 70 1
25311 52 1
25312 52 1
25313 45 1
25315 52 1
25316 54 1
25317 71 1
25319 36 1
25319 38 1
25320 25 1
25321 33 1
25322 70 1
25323 52 1
25324 71 1
25325 70 1
25326 70 1
25327 71 1
25328 68 1
25329 9 1
25330 68 1
25331 51 1
25332 30 1
25333 70 1
25334 70 1
25335 52 1
25336 25 1
25337 34 1
25338 51 1
25339 62 1
25341 61 1
25341 68 1
25342 45 1
25343 49 1
25344 54 1
25345 40 1
25346 43 1
25347 51 1
25348 30 1
25349 38 1
25350 20 1
25350 30 1
25350 31 1
25350 52 1
25350 54 1
25350 61 1
25350 68 2
25351 60 1
25352 18 1
25353 70 1
25354 60 1
25355 70 1
25356 70 1
25357 52 1
25358 68 1
25358 70 1
25359 46 1
25360 70 1
25361 45 1
25362 2 1
25363 73 1
25364 48 1
25365 70 1
25366 54 1
25367 68 1
25368 61 1
25369 38 1
25370 38 1
25372 62 1
25373 70 1
25374 28 1
25375 54 1
25376 48 1
25377 70 1
25378 52 1
25378 65 1
25378 70 1
25379 54 1
25380 54 1
25381 5 1
25381 60 1
25382 33 1
25383 4 1
25383 33 1
25384 20 1
25384 48 1
25385 43 1
25386 13 1
25386 30 1
25386 52 1
25387 71 1
25388 20 1
25389 70 1
25389 71 1
25391 32 1
25391 38 1
25391 52 1
25391 70 1
25392 54 1
25393 52 1
25394 60 1
25395 58 1
25396 54 1
25397 45 1
25398 71 1
25399 71 1
25400 45 1
25401 38 1
25401 62 1
25402 70 1
25403 51 1
25404 32 1
25405 23 1
25406 70 1
25407 62 1
25408 20 1
25409 43 1
25410 70 1
25411 5 1
25412 6 1
25413 31 1
25413 54 1
25414 44 1
25415 70 1
25416 70 1
25417 38 1
25418 20 1
25419 58 1
25419 70 1
25420 44 1
25421 32 1
25422 45 1
25423 59 1
25423 70 1
25424 38 1
25424 60 1
25425 70 1
25426 70 1
25427 51 1
25428 70 1
25429 54 1
25430 32 1
25431 51 1
25432 52 1
25433 71 1
25434 70 1
25435 34 1
25436 4 1
25437 62 1
25438 52 1
25439 71 1
25440 70 1
25441 62 1
25442 43 1
25443 62 1
25444 62 1
25445 4 1
25446 4 1
25447 13 1
25448 48 1
25449 14 1
25450 55 1
25450 62 1
25451 38 1
25452 8 1
25453 62 1
25454 51 1
25455 48 1
25456 43 1
25457 53 1
25457 70 1
25458 71 1
25459 54 1
25460 25 1
25460 41 1
25461 25 1
25462 30 1
25463 59 1
25463 70 1
25464 60 1
25465 2 1
25465 34 1
25465 49 1
25465 70 2
25466 68 2
25467 30 1
25468 70 1
25469 45 1
25470 45 1
25471 32 1
25472 61 1
25473 54 1
25474 68 1
25476 9 1
25477 60 1
25478 48 1
25479 54 1
25480 25 1
25481 12 1
25482 70 1
25483 45 1
25483 54 1
25485 49 1
25486 52 1
25487 61 1
25488 55 1
25489 63 1
25490 30 1
25492 54 1
25493 61 1
25494 68 1
25495 32 1
25495 52 1
25496 43 1
25496 48 1
25497 52 1
25498 70 1
25499 39 1
25501 70 1
25502 70 1
25503 64 1
25504 42 1
25505 45 1
25506 70 1
25507 45 1
25507 61 1
25507 65 1
25508 62 1
25509 71 1
25510 63 1
25511 52 1
25512 30 1
25512 51 1
25513 34 1
25514 70 1
25515 53 1
25516 70 1
25517 6 1
25518 70 1
25519 20 1
25519 30 2
25519 32 1
25520 14 1
25521 68 1
25522 61 1
25523 38 2
25524 70 1
25525 70 1
25526 5 1
25527 52 1
25528 45 1
25529 13 1
25530 46 1
25531 38 2
25531 45 1
25532 5 1
25532 70 1
25533 54 1
25534 13 1
25534 24 1
25535 60 1
25536 62 1
25536 70 1
25537 30 1
25537 70 1
25538 54 1
25538 70 1
25539 62 1
25540 51 1
25541 54 1
25542 52 1
25543 46 1
25544 63 1
25545 62 1
25546 48 1
25547 30 1
25548 32 1
25548 54 1
25549 45 1
25550 9 1
25550 52 1
25551 30 1
25551 62 1
25552 54 1
25553 51 1
25553 52 1
25554 70 1
25555 30 1
25556 62 1
25557 25 1
25558 34 1
25559 70 1
25560 43 1
25560 70 1
25561 5 1
25562 38 1
25563 70 1
25565 20 1
25565 38 1
25565 45 1
25565 49 1
25565 52 1
25565 59 1
25565 70 3
25566 13 1
25567 20 1
25568 62 1
25569 46 1
25570 71 2
25571 38 1
25572 48 1
25573 25 1
25574 25 1
25575 6 1
25576 30 1
25577 20 1
25578 70 1
25579 38 1
25579 70 1
25580 18 1
25581 70 1
25582 60 1
25583 58 1
25584 4 1
25585 5 1
25585 40 1
25585 71 1
25586 52 1
25587 14 1
25587 30 1
25587 70 1
25588 4 1
25589 38 1
25590 30 1
25591 13 1
25592 24 1
25593 60 1
25594 65 1
25595 13 1
25595 62 1
25596 54 1
25596 62 1
25597 33 1
25597 52 1
25598 70 1
25599 68 1
25599 70 1
25600 25 1
25601 24 1
25602 15 1
25602 20 1
25602 70 2
25603 49 1
25604 38 1
25605 25 1
25606 9 1
25607 70 1
25608 70 1
25609 45 1
25610 51 1
25611 54 1
25611 58 1
25612 70 1
25613 68 2
25614 48 1
25615 37 1
25616 32 1
25616 51 1
25617 70 1
25618 38 1
25619 52 1
25620 12 1
25621 6 1
25622 62 1
25622 71 1
25623 6 1
25624 58 1
25625 52 1
25626 70 1
25627 70 1
25628 38 1
25629 68 1
25630 71 1
25631 67 1
25632 71 1
25633 25 1
25634 13 1
25635 45 1
25636 20 1
25636 57 1
25637 52 1
25638 68 1
25639 6 1
25640 38 1
25640 70 1
25641 13 1
25642 1 1
25642 7 1
25642 45 1
25643 12 1
25644 30 1
25645 68 1
25646 45 1
25647 31 1
25648 62 1
25649 55 1
25650 52 1
25651 40 1
25652 25 1
25653 25 1
25654 62 1
25655 54 1
25656 6 1
25656 52 1
25657 62 1
25658 41 1
25659 51 2
25660 4 1
25661 70 1
25662 38 1
25663 2 1
25664 70 1
25665 45 1
25666 65 1
25667 4 1
25668 52 1
25669 51 1
25670 6 1
25670 70 1
25671 52 1
25672 24 1
25673 45 1
25674 70 1
25675 57 1
25676 52 1
25677 70 1
25678 4 1
25679 54 1
25680 4 1
25680 70 1
25681 54 1
25682 58 1
25683 70 1
25684 70 1
25685 52 1
25686 54 2
25687 70 1
25688 51 1
25688 52 1
25689 2 1
25690 43 1
25691 54 1
25692 54 1
25693 48 1
25694 51 1
25695 45 1
25696 31 1
25696 46 1
25696 48 1
25697 68 1
25698 45 1
25699 51 1
25700 52 1
25701 55 1
25702 70 1
25703 20 1
25703 52 1
25704 43 1
25704 68 1
25705 43 1
25705 62 1
25705 70 1
25706 30 1
25707 59 1
25708 2 1
25709 60 1
25710 70 1
25711 48 1
25712 51 1
25713 58 1
25714 40 1
25715 43 1
25716 9 1
25716 38 1
25716 49 1
25716 71 1
25717 70 1
25719 30 1
25719 54 1
25720 10 1
25721 5 1
25722 52 1
25722 70 1
25723 52 1
25724 12 1
25725 62 1
25726 70 1
25727 62 1
25728 41 1
25729 61 1
25730 62 1
25731 62 1
25732 38 1
25733 4 1
25734 25 1
25735 30 1
25736 70 1
25737 58 1
25737 63 1
25738 70 1
25739 33 1
25740 26 1
25741 70 1
25742 18 2
25742 20 1
25742 34 1
25742 71 1
25743 54 1
25744 52 1
25745 48 1
25746 54 1
25747 38 1
25748 58 1
25749 71 1
25750 70 1
25751 70 1
25752 54 1
25753 54 1
25753 58 1
25754 43 1
25755 62 1
25756 63 1
25757 51 1
25758 70 1
25759 52 1
25760 68 1
25761 52 1
25761 54 1
25762 34 1
25762 70 1
25763 20 1
25763 45 1
25763 70 1
25764 45 1
25765 38 1
25766 70 1
25767 38 1
25767 47 1
25768 62 1
25769 58 1
25770 70 1
25771 70 1
25772 58 1
25773 52 1
25774 2 1
25774 9 1
25775 62 1
25776 12 1
25777 51 2
25778 52 1
25779 48 1
25780 20 1
25781 45 1
25782 63 1
25783 71 1
25784 70 1
25785 51 1
25785 63 1
25786 71 1
25787 70 1
25788 34 1
25789 48 1
25790 70 1
25791 59 1
25792 68 1
25793 18 1
25794 62 1
25795 71 1
25796 18 1
25797 51 1
25798 32 1
25798 62 1
25799 38 1
25800 70 1
25801 58 2
25802 70 1
25803 52 1
25804 38 1
25805 38 1
25806 32 1
25807 70 1
25808 2 1
25809 34 1
25810 62 1
25811 31 1
25812 49 1
25813 68 1
25815 60 1
25815 71 1
25816 62 1
25817 48 1
25818 70 1
25819 62 1
25820 52 1
25821 38 1
25821 52 1
25822 20 1
25823 30 1
25823 51 1
25824 62 1
25825 25 1
25826 51 1
25826 52 1
25827 13 1
25827 59 1
25827 62 1
25827 70 1
25827 71 1
25828 31 1
25829 45 1
25830 4 1
25831 33 1
25832 52 1
25833 71 1
25834 54 1
25835 62 1
25836 52 1
25837 30 1
25838 30 1
25838 59 1
25839 48 1
25840 68 1
25840 70 1
25841 30 1
25842 9 1
25844 30 1
25845 70 1
25846 70 1
25847 32 1
25848 33 1
25849 54 1
25850 62 1
25851 70 1
25852 14 1
25852 70 1
25853 70 1
25854 40 1
25855 9 1
25856 38 1
25857 70 1
25858 2 1
25859 62 1
25859 68 1
25860 70 1
25861 70 1
25862 31 1
25863 32 1
25865 49 1
25866 71 1
25867 54 1
25868 65 1
25869 65 1
25870 34 1
25871 71 1
25872 4 1
25873 38 1
25873 71 1
25874 54 1
25875 70 1
25876 40 1
25877 30 1
25878 45 1
25879 55 1
25880 32 1
25881 2 1
25881 71 1
25882 70 1
25883 20 1
25884 45 1
25885 27 1
25886 70 1
25887 62 1
25888 59 1
25889 20 1
25890 30 1
25890 52 2
25891 52 1
25892 70 1
25893 58 1
25894 48 1
25895 9 1
25896 13 1
25897 30 1
25898 20 1
25898 52 1
25899 25 1
25899 68 1
25901 68 1
25902 6 1
25902 71 1
25903 62 1
25904 25 1
25905 51 1
25906 58 1
25907 52 1
25908 13 1
25909 71 1
25910 57 1
25910 70 1
25911 70 1
25913 70 1
25914 7 1
25916 38 1
25917 51 1
25917 68 1
25917 71 1
25918 70 1
25919 32 1
25920 70 1
25921 13 1
25922 52 1
25923 55 1
25924 62 1
25925 70 1
25926 52 1
25927 65 1
25928 33 1
25929 43 1
25931 30 1
25932 60 1
25933 45 1
25934 51 1
25935 58 1
25936 62 1
25937 54 1
25938 71 1
25939 70 1
25940 68 1
25941 31 1
25942 51 1
25942 63 1
25943 38 1
25944 71 1
25945 33 1
25946 59 1
25947 45 1
25948 71 1
25949 45 1
25950 51 1
25951 20 1
25951 55 1
25952 70 1
25953 70 1
25954 31 1
25955 51 1
25956 70 1
25957 62 1
25958 62 1
25959 61 1
25960 26 1
25961 9 1
25962 63 1
25963 4 1
25964 20 1
25964 52 1
25965 45 1
25966 71 1
25967 38 1
25968 70 1
25969 13 1
25970 45 1
25971 38 1
25972 54 1
25973 38 1
25974 34 1
25975 20 1
25976 48 2
25976 70 1
25977 48 1
25978 52 1
25979 24 1
25980 63 1
25980 68 1
25981 58 1
25981 70 1
25982 71 1
25983 9 1
25983 65 1
25984 19 1
25985 48 1
25985 68 1
25986 52 1
25987 60 1
25988 70 1
25989 70 1
25990 55 1
25991 38 1
25991 45 1
25992 24 1
25993 20 1
25994 6 1
25995 33 1
25996 38 1
25997 18 1
25998 51 1
25999 52 1
26000 13 1
26000 49 1
26001 58 1
26002 68 1
26003 52 1
26004 65 1
26005 20 1
26005 71 1
26006 51 1
26008 51 1
26009 70 1
26010 38 1
26011 62 1
26012 55 1
26013 4 1
26014 71 1
26015 70 3
26016 13 1
26016 51 1
26016 62 1
26017 60 1
26018 60 1
26019 13 1
26020 45 1
26021 51 1
26022 9 1
26022 31 1
26023 49 1
26023 60 1
26024 70 1
26025 32 1
26026 52 1
26027 26 1
26028 71 1
26029 34 1
26029 38 1
26030 73 1
26031 70 1
26032 58 2
26033 1 1
26033 38 1
26034 52 1
26035 30 1
26036 52 1
26037 70 1
26038 68 1
26039 13 1
26040 52 1
26041 70 1
26042 68 1
26043 52 1
26044 2 1
26045 9 1
26045 31 1
26045 38 1
26045 49 1
26045 65 1
26045 68 1
26046 38 1
26047 30 1
26048 54 1
26049 70 1
26050 32 1
26051 4 1
26052 54 1
26052 58 1
26053 45 1
26054 45 1
26055 38 1
26056 51 1
26057 20 1
26058 48 1
26058 52 1
26059 48 1
26060 60 1
26061 41 1
26062 70 1
26063 33 1
26064 48 1
26065 58 1
26065 70 1
26066 25 1
26067 51 1
26068 62 1
26069 60 1
26069 70 1
26070 25 1
26070 51 1
26070 71 1
26071 52 1
26072 13 1
26073 68 1
26074 37 1
26074 54 1
26075 62 1
26076 25 1
26077 60 1
26078 54 1
26079 9 1
26080 4 1
26081 70 1
26082 38 1
26083 51 1
26084 70 1
26085 60 1
26086 9 1
26087 51 1
26088 71 1
26089 30 1
26090 24 1
26090 38 1
26091 48 1
26092 52 1
26093 56 1
26094 24 1
26094 70 1
26095 21 1
26095 43 1
26096 38 1
26097 45 1
26098 49 1
26099 54 1
26099 58 1
26100 38 1
26100 54 1
26101 38 1
26101 61 1
26102 63 1
26103 13 1
26103 18 1
26104 68 1
26105 52 1
26106 32 1
26107 70 1
26108 62 1
26109 52 1
26110 13 1
26111 70 3
26112 42 1
26112 52 1
26113 45 1
26114 13 1
26115 45 1
26116 30 1
26117 62 1
26118 70 1
26119 43 1
26120 48 1
26121 52 1
26122 30 1
26122 61 1
26124 49 1
26125 62 1
26126 70 1
26127 52 1
26128 38 1
26129 2 1
26130 49 1
26131 70 1
26132 70 1
26133 39 1
26134 51 1
26135 54 1
26135 70 1
26136 70 1
26137 70 1
26138 48 1
26139 45 1
26140 31 1
26141 71 1
26142 13 1
26143 59 1
26144 30 1
26145 34 1
26145 70 1
26146 54 1
26147 38 1
26147 62 1
26147 70 1
26148 13 1
26149 70 1
26150 35 1
26150 62 1
26151 70 1
26152 52 1
26153 54 1
26154 63 1
26155 6 1
26156 25 1
26156 70 1
26157 45 1
26158 45 1
26159 58 1
26160 45 1
26161 54 1
26162 31 1
26163 2 1
26164 40 1
26165 48 1
26166 30 1
26167 4 1
26167 70 1
26168 4 1
26169 34 1
26169 45 1
26170 14 1
26171 18 1
26172 30 1
26173 54 1
26174 54 2
26175 38 1
26176 70 1
26177 71 1
26178 71 1
26179 60 1
26179 70 1
26179 71 1
26180 4 1
26180 63 1
26181 25 1
26181 71 1
26182 12 1
26183 49 1
26184 52 1
26185 5 1
26186 51 1
26187 7 1
26188 61 1
26189 70 1
26190 70 1
26191 58 1
26192 70 1
26193 17 1
26195 38 1
26196 70 1
26197 70 1
26198 55 1
26199 54 2
26200 12 1
26201 20 1
26201 70 1
26202 38 1
26202 70 1
26203 9 1
26203 45 1
26204 9 1
26205 70 1
26206 51 1
26207 38 1
26208 5 1
26209 71 1
26210 9 1
26210 52 1
26210 54 1
26211 70 1
26212 70 1
26213 70 1
26214 54 1
26215 54 1
26216 70 2
26217 54 1
26218 52 1
26219 39 1
26220 62 1
26221 70 1
26222 70 1
26223 71 1
26224 40 1
26225 52 1
26226 16 1
26227 48 1
26228 70 1
26229 2 1
26230 70 1
26231 43 1
26232 30 2
26232 70 1
26233 45 1
26233 59 1
26233 69 1
26234 62 1
26235 70 1
26236 70 1
26237 54 1
26238 71 1
26239 51 1
26240 45 1
26241 4 1
26242 70 1
26243 71 1
26244 54 1
26245 33 1
26246 38 1
26247 34 1
26248 66 1
26249 54 1
26250 70 1
26251 48 1
26251 70 1
26252 52 1
26253 58 1
26254 71 1
26255 62 1
26256 12 1
26257 65 1
26258 58 1
26258 62 2
26259 70 1
26260 38 1
26262 70 1
26263 38 1
26264 54 1
26264 59 1
26265 71 1
26266 45 1
26267 34 1
26267 52 1
26268 70 1
26269 23 1
26270 25 1
26271 12 1
26272 70 1
26273 71 1
26274 45 1
26275 70 1
26276 30 1
26277 48 1
26278 25 1
26279 18 1
26279 40 1
26280 70 1
26281 62 1
26282 51 1
26283 30 1
26284 68 1
26285 60 1
26286 38 1
26287 18 1
26287 25 1
26288 41 1
26289 30 1
26289 59 1
26290 71 1
26291 38 1
26291 51 1
26292 5 1
26293 2 1
26294 13 1
26295 58 1
26296 60 1
26297 6 1
26298 40 1
26299 6 1
26299 71 1
26300 4 1
26301 48 1
26302 45 1
26303 41 1
26304 51 1
26305 62 1
26306 65 1
26307 36 1
26308 40 1
26309 70 1
26310 4 1
26311 62 1
26312 13 1
26312 70 1
26313 70 1
26314 55 1
26315 58 1
26316 49 1
26317 54 1
26318 71 1
26319 9 1
26320 54 1
26321 13 1
26322 38 1
26323 45 1
26324 18 1
26325 20 1
26326 68 1
26327 51 1
26328 51 1
26329 38 1
26330 55 1
26331 38 1
26332 6 1
26333 45 1
26334 60 1
26335 52 1
26336 52 1
26337 70 1
26338 71 1
26339 70 1
26340 70 1
26341 71 1
26342 46 1
26343 25 1
26343 61 1
26344 52 1
26345 70 1
26346 4 1
26347 52 1
26348 62 1
26349 62 1
26350 62 1
26350 70 1
26351 6 1
26351 30 1
26352 38 1
26352 62 1
26353 43 1
26354 38 1
26355 52 1
26355 71 1
26356 70 1
26357 45 1
26358 54 1
26358 62 1
26359 9 1
26360 33 1
26361 25 1
26362 25 1
26363 12 1
26364 45 2
26365 45 1
26366 62 1
26367 52 1
26368 70 1
26369 5 1
26369 34 1
26369 71 1
26370 9 1
26370 70 1
26371 48 1
26372 6 1
26373 9 1
26374 70 1
26375 70 1
26376 62 1
26377 3 1
26378 13 1
26378 52 1
26378 68 1
26378 70 1
26378 71 1
26379 40 2
26379 49 1
26380 9 1
26380 31 1
26380 43 1
26380 45 1
26380 54 1
26380 58 1
26380 65 2
26380 70 1
26381 61 1
26382 68 1
26383 30 1
26384 38 1
26385 58 1
26386 38 1
26387 52 1
26389 55 1
26389 58 1
26389 71 1
26390 54 1
26391 51 1
26392 13 1
26393 70 1
26394 70 1
26395 70 1
26396 10 1
26397 4 1
26398 41 1
26399 70 1
26400 6 1
26401 20 1
26402 62 1
26403 70 1
26404 70 1
26405 30 1
26406 13 1
26406 25 1
26407 70 1
26408 31 1
26409 60 1
26409 70 1
26410 38 1
26410 70 1
26411 13 1
26412 4 1
26413 62 1
26414 2 1
26415 52 1
26416 51 1
26417 38 2
26418 70 1
26419 54 1
26420 70 1
26421 51 1
26422 58 1
26423 71 1
26424 62 1
26425 24 1
26426 48 1
26427 62 1
26428 63 1
26429 54 1
26430 38 1
26431 6 1
26432 25 1
26433 45 1
26433 62 1
26433 71 1
26434 38 1
26436 45 1
26437 70 1
26438 45 1
26438 46 1
26439 25 1
26440 62 1
26441 55 1
26443 70 1
26444 38 1
26445 70 1
26446 54 1
26447 60 1
26447 62 1
26448 13 1
26448 70 1
26449 34 1
26450 54 1
26451 62 1
26452 38 1
26452 51 1
26453 24 1
26454 9 1
26455 43 1
26456 59 1
26457 54 1
26458 45 1
26459 39 1
26459 45 1
26460 9 1
26461 70 1
26462 4 1
26463 18 1
26464 52 1
26465 18 1
26466 38 1
26467 51 1
26468 70 1
26469 54 1
26470 70 1
26471 27 1
26472 12 1
26473 70 1
26474 51 1
26475 70 1
26476 20 1
26476 61 1
26477 70 2
26478 51 1
26479 18 2
26480 52 1
26481 54 1
26482 18 1
26482 45 1
26483 70 1
26484 25 1
26484 32 1
26484 70 1
26485 2 2
26485 58 2
26485 71 1
26486 34 1
26487 71 1
26488 52 1
26489 54 1
26490 20 1
26491 12 1
26492 25 1
26492 60 1
26493 20 1
26494 24 1
26495 45 1
26495 49 1
26495 54 1
26496 30 1
26497 54 1
26498 38 1
26499 43 1
26500 38 1
26501 20 1
26501 60 1
26502 51 1
26503 59 1
26504 59 1
26505 25 1
26506 45 1
26507 38 1
26507 52 1
26507 70 2
26508 60 1
26509 60 1
26510 38 1
26511 25 1
26511 71 1
26512 60 1
26513 54 1
26514 54 1
26515 17 1
26516 34 1
26517 70 1
26518 12 1
26518 70 1
26519 70 1
26520 60 1
26521 54 1
26522 49 1
26523 9 1
26523 49 1
26523 54 1
26524 38 1
26525 70 1
26526 26 1
26526 71 1
26527 38 1
26528 71 1
26529 70 1
26530 62 1
26531 71 1
26532 58 1
26533 52 1
26534 71 1
26535 9 1
26536 24 1
26537 49 1
26538 30 1
26539 70 1
26540 60 1
26541 70 1
26542 34 1
26543 33 1
26543 68 1
26544 71 1
26545 70 1
26546 70 1
26547 38 1
26548 9 1
26549 2 1
26550 45 1
26550 52 1
26551 69 1
26552 59 2
26553 69 1
26554 58 1
26555 18 1
26556 54 1
26557 58 1
26558 70 1
26559 12 1
26560 18 1
26561 2 1
26561 4 1
26561 14 1
26561 18 2
26561 20 2
26561 24 1
26561 25 1
26561 30 1
26561 32 2
26561 33 1
26561 43 2
26561 45 1
26561 51 1
26561 52 1
26561 58 7
26561 61 4
26561 62 5
26561 65 1
26561 68 1
26561 70 1
26562 45 1
26563 13 1
26564 6 1
26565 54 1
26566 70 1
26567 20 1
26568 33 1
26568 62 1
26569 38 2
26569 45 1
26570 4 1
26571 70 1
26572 24 1
26573 62 1
26574 51 1
26575 51 1
26576 39 1
26577 70 1
26578 48 1
26579 71 1
26580 38 1
26581 70 1
26582 20 1
26583 25 1
26584 70 1
26585 70 1
26586 4 1
26587 61 1
26588 30 1
26588 70 1
26589 70 2
26590 9 1
26591 54 1
26592 21 1
26592 45 1
26593 63 1
26594 9 1
26595 51 1
26596 43 1
26597 56 1
26598 31 1
26599 20 1
26600 45 1
26601 43 1
26602 20 1
26602 38 1
26602 70 1
26603 38 1
26603 55 1
26604 70 1
26605 55 1
26606 4 1
26607 13 1
26608 70 1
26609 70 1
26610 18 1
26611 31 1
26612 71 1
26613 52 1
26614 70 1
26615 71 1
26616 55 1
26617 4 1
26618 70 1
26619 25 1
26621 17 1
26621 62 1
26622 33 1
26622 43 1
26622 51 1
26623 46 1
26624 20 1
26625 9 1
26625 54 1
26626 52 1
26626 61 1
26627 62 1
26628 30 1
26629 38 2
26630 70 1
26631 70 1
26632 68 1
26633 4 1
26634 2 1
26634 70 1
26635 59 1
26636 51 1
26637 14 1
26638 52 1
26639 70 1
26640 70 1
26641 45 1
26642 51 1
26642 70 1
26643 70 1
26644 52 1
26645 49 1
26646 20 1
26647 70 1
26648 62 1
26649 51 1
26650 61 1
26651 30 1
26652 70 1
26652 71 1
26653 38 1
26654 63 1
26654 71 1
26655 25 1
26655 68 1
26655 70 1
26656 52 1
26656 70 1
26657 13 1
26658 52 1
26659 49 1
26660 70 1
26661 30 1
26661 70 2
26662 49 1
26663 54 1
26664 62 1
26665 51 1
26666 4 1
26667 38 1
26667 56 1
26668 45 1
26668 70 1
26669 70 1
26670 13 1
26670 70 2
26671 2 1
26672 70 1
26673 34 1
26674 70 1
26675 69 1
26676 13 1
26677 34 1
26678 68 1
26679 54 1
26680 62 1
26681 25 1
26682 52 1
26683 48 1
26684 34 1
26685 68 1
26685 70 1
26686 6 1
26687 54 1
26688 6 1
26688 41 1
26689 25 1
26690 5 1
26690 62 1
26690 70 1
26691 59 1
26692 63 1
26693 70 1
26694 20 1
26695 70 1
26696 65 1
26697 2 2
26698 25 1
26699 54 1
26700 52 1
26700 62 1
26701 6 1
26702 25 1
26704 72 1
26705 13 1
26706 52 1
26707 51 1
26708 62 1
26709 52 1
26710 54 1
26711 40 1
26712 60 1
26713 70 1
26714 70 1
26715 49 1
26716 70 1
26717 45 1
26718 31 1
26718 47 1
26718 65 1
26719 52 1
26720 38 1
26721 20 1
26722 25 1
26723 4 1
26724 46 1
26725 71 1
26726 18 1
26726 70 1
26728 13 1
26729 25 1
26730 54 1
26730 62 1
26731 2 2
26731 6 2
26731 11 1
26731 13 1
26731 14 2
26731 20 1
26731 21 1
26731 23 1
26731 24 2
26731 25 2
26731 30 8
26731 31 3
26731 32 8
26731 38 2
26731 39 1
26731 43 2
26731 44 1
26731 45 4
26731 48 3
26731 49 2
26731 51 5
26731 52 5
26731 54 3
26731 55 1
26731 58 1
26731 60 1
26731 61 12
26731 62 7
26731 65 1
26731 70 6
26731 71 2
26732 45 1
26733 70 1
26734 70 1
26735 62 1
26736 62 1
26737 30 1
26739 70 1
26740 30 1
26741 54 1
26742 70 1
26743 54 1
26744 10 1
26745 70 1
26745 71 1
26746 62 1
26747 10 1
26748 25 1
26749 70 1
26750 63 1
26751 26 1
26752 4 1
26752 38 1
26753 52 1
26754 13 1
26754 23 1
26754 25 1
26754 40 1
26754 68 1
26755 70 1
26756 20 1
26757 34 1
26758 45 1
26758 52 1
26758 62 1
26760 52 1
26761 52 1
26762 54 1
26763 45 1
26764 25 1
26765 45 1
26766 52 1
26766 70 1
26767 31 1
26767 34 1
26767 58 1
26767 70 1
26768 52 1
26769 25 1
26770 30 1
26771 30 1
26772 70 1
26773 70 1
26774 62 1
26775 62 1
26776 54 1
26777 58 1
26778 62 1
26779 70 1
26780 68 2
26781 54 1
26782 28 1
26783 55 1
26784 33 1
26784 54 1
26785 62 1
26786 46 1
26787 62 1
26788 38 1
26788 70 1
26789 43 1
26790 38 1
26791 51 1
26791 52 1
26792 62 1
26793 60 1
26794 40 1
26795 49 1
26795 61 1
26796 38 1
26797 54 1
26798 38 1
26799 25 1
26800 70 1
26801 32 1
26802 34 1
26803 70 1
26804 30 1
26805 20 1
26806 4 1
26807 71 1
26808 9 1
26808 71 1
26809 54 1
26810 25 1
26811 70 1
26812 54 1
26813 61 1
26814 52 1
26815 4 1
26816 38 1
26817 62 1
26818 61 1
26819 20 1
26819 43 1
26819 48 1
26819 57 1
26819 61 1
26820 49 1
26821 38 1
26822 24 1
26823 60 1
26824 31 1
26826 71 1
26827 34 1
26827 70 1
26828 51 1
26829 13 1
26829 48 1
26830 43 1
26831 34 1
26831 70 1
26832 45 1
26833 61 1
26834 2 1
26834 10 1
26834 14 1
26834 18 1
26834 20 3
26834 21 1
26834 24 1
26834 30 1
26834 32 1
26834 34 4
26834 39 2
26834 40 1
26834 45 3
26834 51 3
26834 54 1
26835 51 1
26836 54 1
26837 68 1
26838 38 1
26839 62 1
26840 33 1
26841 62 1
26842 62 1
26843 13 1
26844 38 1
26845 20 1
26845 71 1
26846 52 1
26847 70 1
26848 18 1
26849 70 1
26850 73 1
26851 34 1
26851 43 1
26852 52 1
26853 38 1
26854 70 1
26855 4 1
26856 70 1
26857 30 1
26859 71 1
26860 5 1
26861 24 1
26862 70 2
26863 62 1
26864 60 1
26865 39 1
26866 71 1
26867 61 1
26868 38 1
26869 62 1
26870 5 1
26871 45 1
26872 55 1
26873 70 2
26874 70 1
26875 71 1
26876 20 1
26877 13 1
26878 62 1
26879 38 1
26880 68 1
26881 38 1
26882 54 1
26883 21 1
26884 4 1
26884 69 1
26885 2 1
26885 18 1
26886 38 1
26887 52 1
26888 20 1
26889 52 1
26890 9 1
26890 71 1
26891 59 1
26892 4 1
26893 40 1
26893 62 1
26894 70 1
26895 71 1
26896 6 1
26896 52 1
26896 58 1
26897 70 1
26898 68 1
26899 38 1
26899 62 1
26900 52 1
26901 38 1
26901 70 2
26902 62 1
26903 38 1
26904 54 1
26905 38 1
26905 54 1
26906 52 1
26907 52 1
26908 25 1
26909 52 2
26910 62 1
26911 62 1
26912 54 1
26913 21 1
26913 34 1
26914 45 1
26914 70 1
26915 34 1
26916 60 1
26917 33 1
26918 43 1
26919 40 1
26920 4 1
26920 71 1
26921 52 1
26921 59 1
26922 70 1
26923 70 1
26924 12 1
26925 55 1
26926 54 1
26927 52 1
26928 21 1
26928 48 1
26928 49 1
26928 60 1
26928 70 1
26929 58 1
26930 70 1
26931 52 1
26932 12 1
26932 51 1
26932 70 1
26933 9 1
26934 54 1
26935 20 1
26936 45 2
26937 5 1
26938 49 1
26938 54 1
26939 70 1
26940 34 1
26941 70 1
26942 25 1
26943 20 1
26943 52 1
26944 31 1
26945 30 1
26945 58 1
26945 70 2
26946 51 1
26947 25 1
26948 25 1
26949 70 1
26950 54 1
26951 62 1
26952 70 1
26953 70 1
26954 34 1
26954 70 1
26955 58 1
26956 61 1
26957 25 1
26958 49 1
26959 48 1
26960 51 1
26961 30 1
26963 61 1
26964 70 1
26965 71 1
26966 52 1
26967 63 1
26968 18 1
26968 45 1
26968 70 1
26969 2 1
26969 30 1
26969 38 1
26969 49 1
26969 54 1
26969 62 2
26969 70 2
26970 70 2
26971 40 1
26972 70 1
26973 61 1
26974 23 1
26975 70 1
26976 45 1
26977 43 1
26978 38 1
26979 30 1
26980 58 1
26981 38 1
26982 52 1
26983 58 1
26984 51 1
26985 70 1
26986 18 1
26987 2 1
26988 62 1
26989 54 1
26989 71 1
26990 61 1
26991 20 1
26992 38 1
26993 68 1
26994 25 1
26995 54 1
26996 60 1
26997 62 1
26998 31 1
26999 62 1
27001 38 1
27002 50 1
27002 58 1
27003 32 1
27003 38 1
27003 54 1
27003 71 1
27004 51 1
27005 48 1
27006 51 1
27007 20 1
27007 30 1
27007 38 1
27007 51 1
27007 52 3
27007 63 1
27007 70 1
27007 71 1
27008 52 1
27009 70 1
27010 51 1
27011 34 1
27012 30 2
27012 70 1
27013 70 1
27014 63 1
27015 18 1
27015 71 2
27016 62 1
27017 70 1
27018 45 2
27019 68 1
27020 4 1
27021 34 1
27022 68 1
27023 12 1
27024 18 1
27024 51 1
27025 59 1
27025 70 1
27026 71 1
27027 33 1
27027 52 1
27028 70 1
27029 25 1
27029 38 1
27029 54 1
27029 70 1
27030 62 1
27031 52 1
27032 34 1
27032 48 1
27032 68 1
27033 61 1
27034 71 1
27035 48 1
27036 71 1
27037 70 1
27038 44 1
27038 60 1
27039 70 1
27040 52 1
27041 65 1
27042 54 1
27043 65 1
27044 63 1
27045 61 1
27047 31 1
27048 52 1
27048 70 1
27049 52 1
27050 62 1
27050 70 1
27051 24 1
27052 7 1
27053 70 1
27054 70 1
27055 25 1
27055 70 1
27056 25 1
27057 62 1
27058 70 1
27059 25 1
27060 59 1
27061 34 1
27062 54 1
27063 70 1
27064 14 1
27064 70 1
27065 62 1
27066 13 1
27067 48 1
27068 70 1
27069 51 1
27070 38 1
27071 6 1
27072 70 1
27073 52 1
27074 52 1
27074 70 2
27075 63 1
27076 62 1
27077 54 1
27078 34 1
27079 45 1
27080 9 1
27081 6 1
27082 54 1
27083 45 1
27083 70 1
27084 45 1
27084 62 1
27085 52 1
27086 49 1
27087 70 1
27088 70 1
27089 71 1
27090 52 2
27091 58 1
27092 12 1
27093 61 1
27094 70 1
27095 70 1
27096 70 1
27097 68 1
27098 70 1
27099 70 1
27100 60 1
27101 46 1
27102 61 1
27103 70 1
27104 65 1
27104 70 1
27105 48 1
27105 62 1
27105 70 2
27106 71 1
27107 51 1
27107 68 1
27109 70 1
27110 32 1
27111 45 1
27112 48 1
27113 70 1
27114 52 1
27115 70 1
27116 31 1
27116 70 1
27117 62 1
27118 70 1
27119 4 1
27120 58 1
27121 60 1
27122 52 1
27122 71 1
27123 70 1
27124 70 1
27125 38 1
27126 54 1
27127 51 1
27128 12 1
27129 9 1
27130 60 1
27131 43 1
27132 4 1
27133 54 1
27134 62 1
27135 43 1
27136 34 1
27137 30 1
27138 68 1
27139 51 1
27140 70 2
27141 24 1
27141 52 1
27142 70 1
27143 4 1
27144 70 1
27145 52 1
27146 49 1
27147 52 1
27148 2 1
27149 12 1
27149 38 1
27150 34 1
27151 25 1
27151 70 1
27152 68 1
27153 12 1
27153 25 1
27153 60 1
27154 63 1
27154 68 1
27155 51 1
27156 52 1
27157 38 1
27158 45 1
27159 13 1
27160 70 1
27161 54 1
27162 30 1
27163 48 1
27164 51 1
27165 45 1
27166 13 1
27167 13 1
27168 17 1
27169 43 1
27169 70 1
27170 13 1
27170 62 1
27171 70 1
27172 33 1
27173 49 1
27174 52 1
27174 62 1
27175 70 1
27176 30 1
27177 4 1
27178 32 1
27179 20 1
27180 70 1
27181 45 1
27182 54 1
27183 62 1
27184 70 1
27185 70 1
27186 45 1
27187 60 1
27187 71 2
27188 30 1
27188 38 1
27189 41 1
27190 62 1
27191 62 1
27192 34 1
27193 51 1
27194 70 1
27195 54 1
27196 54 1
27197 52 1
27198 70 1
27199 60 1
27200 70 1
27201 25 1
27202 58 1
27203 2 1
27204 34 1
27205 13 1
27206 45 1
27207 4 1
27208 51 1
27209 71 1
27210 20 1
27211 51 1
27212 25 1
27213 62 1
27214 71 1
27215 70 1
27216 70 1
27217 71 1
27218 70 1
27220 71 1
27221 45 1
27222 40 1
27223 61 1
27224 70 1
27225 68 1
27225 70 1
27226 43 1
27227 51 1
27227 70 1
27228 54 1
27228 62 1
27229 62 1
27229 70 1
27230 45 1
27230 60 1
27231 20 1
27232 32 1
27233 52 1
27234 71 1
27235 52 1
27236 69 1
27237 45 1
27238 58 1
27239 43 1
27240 63 1
27241 52 1
27242 54 1
27243 31 1
27244 57 1
27245 59 1
27246 70 1
27247 54 1
27248 56 1
27249 68 1
27249 70 1
27250 52 1
27250 54 1
27251 70 2
27252 70 1
27253 51 1
27254 62 1
27255 33 1
27256 51 1
27257 20 1
27258 62 1
27259 60 1
27260 70 1
27261 46 1
27262 33 1
27263 70 1
27264 43 1
27265 70 1
27266 32 1
27267 52 1
27267 70 1
27268 54 1
27269 45 1
27269 62 1
27269 68 1
27270 34 1
27270 62 2
27271 45 1
27271 70 1
27271 71 1
27272 62 1
27273 25 1
27274 52 1
27275 24 1
27276 38 1
27278 41 1
27279 30 1
27279 51 1
27279 59 1
27280 6 1
27281 70 1
27282 61 1
27283 32 1
27284 30 1
27285 52 1
27286 48 1
27287 45 1
27287 71 1
27288 14 1
27289 45 1
27290 54 1
27291 34 1
27292 38 1
27293 52 1
27294 30 1
27295 52 1
27296 30 1
27296 71 1
27297 70 1
27298 45 1
27298 48 1
27299 25 1
27300 51 1
27302 62 1
27302 68 1
27303 20 1
27304 58 1
27305 49 1
27306 8 1
27307 13 1
27308 25 1
27309 60 1
27309 66 1
27310 62 1
27311 34 1
27312 34 1
27313 7 1
27314 30 1
27315 48 1
27316 54 1
27317 38 1
27318 31 1
27318 60 1
27319 62 1
27320 52 1
27322 31 1
27323 54 1
27324 71 1
27325 23 1
27326 31 1
27327 54 1
27327 70 1
27328 60 1
27329 51 1
27330 61 1
27330 70 1
27331 34 1
27332 52 1
27332 65 1
27333 4 1
27334 65 1
27335 70 1
27336 38 1
27337 62 1
27338 70 1
27339 30 1
27340 59 1
27341 71 1
27342 68 1
27343 71 1
27344 70 1
27345 54 1
27346 43 1
27347 52 1
27348 20 1
27349 55 1
27350 62 1
27351 62 1
27351 70 1
27352 1 1
27353 62 1
27354 61 1
27355 20 1
27356 39 1
27357 70 1
27358 30 1
27359 13 1
27359 71 1
27360 10 1
27361 54 1
27362 45 1
27363 70 1
27364 62 1
27365 43 1
27366 52 1
27367 34 1
27368 20 1
27368 54 1
27369 5 1
27370 38 1
27371 38 1
27372 62 1
27373 23 1
27374 20 1
27375 52 1
27376 60 1
27377 45 1
27378 68 1
27379 38 1
27380 6 1
27380 62 1
27381 54 1
27382 71 1
27383 52 1
27384 68 1
27384 70 1
27385 23 1
27385 34 1
27385 52 1
27386 45 1
27387 52 1
27388 45 1
27389 52 1
27390 32 1
27391 54 1
27392 58 1
27393 41 1
27393 48 2
27393 70 1
27394 47 1
27395 30 1
27395 62 1
27396 45 1
27397 38 1
27398 70 1
27399 45 1
27399 51 1
27400 48 1
27401 20 1
27401 51 1
27401 70 1
27402 54 1
27402 70 1
27403 54 1
27404 62 1
27405 55 1
27406 61 1
27407 60 1
27408 38 1
27409 70 1
27410 12 1
27410 70 1
27411 24 1
27411 52 1
27412 24 1
27413 48 1
27414 40 1
27415 16 1
27417 62 1
27417 70 1
27418 41 1
27419 43 1
27420 54 1
27421 54 1
27422 38 1
27422 71 1
27423 62 1
27423 70 1
27424 4 1
27425 45 1
27426 12 1
27427 70 1
27428 34 1
27429 6 1
27429 65 1
27430 48 1
27430 70 1
27431 60 1
27432 60 1
27433 70 1
27434 54 1
27435 60 1
27437 68 1
27438 52 1
27439 52 1
27440 70 1
27441 6 2
27441 32 1
27441 34 1
27442 52 1
27443 52 1
27444 68 1
27445 58 1
27446 38 1
27446 52 1
27447 38 1
27448 26 1
27449 45 1
27450 48 1
27451 70 1
27452 68 1
27452 70 1
27453 30 1
27454 34 1
27455 63 1
27456 13 2
27456 24 1
27456 25 2
27456 43 1
27456 54 1
27456 58 1
27457 54 1
27457 70 1
27458 70 1
27459 13 1
27460 52 1
27461 51 1
27462 45 1
27463 4 1
27464 52 1
27465 52 1
27465 70 1
27466 55 1
27467 52 1
27468 62 1
27469 70 1
27470 39 1
27471 45 1
27472 52 1
27473 6 1
27474 58 1
27475 46 1
27475 70 1
27476 51 1
27477 52 1
27478 59 1
27478 71 1
27479 43 1
27479 71 2
27480 55 1
27481 32 1
27482 68 1
27483 25 1
27483 70 1
27484 54 1
27485 11 1
27485 70 1
27486 70 1
27487 45 1
27488 4 1
27489 43 1
27490 52 1
27491 60 1
27492 70 1
27493 70 1
27494 52 1
27495 70 2
27498 71 1
27499 65 1
27500 25 1
27501 4 1
27502 52 1
27503 13 1
27504 68 1
27505 70 1
27506 32 1
27507 20 1
27508 52 1
27509 52 1
27510 70 1
27511 41 1
27511 70 1
27512 52 1
27513 13 1
27514 39 1
27515 51 1
27516 49 1
27516 70 1
27517 45 1
27518 70 1
27519 68 2
27520 52 1
27521 70 2
27522 25 1
27523 15 1
27524 4 1
27525 18 1
27525 48 1
27526 68 1
27527 64 1
27527 71 1
27528 2 1
27529 70 1
27530 70 1
27531 70 1
27531 71 1
27532 30 1
27532 34 1
27533 30 1
27533 71 1
27534 38 2
27535 68 1
27536 17 1
27537 54 1
27538 43 1
27539 51 1
27540 54 1
27542 45 1
27543 45 1
27544 54 1
27545 4 3
27545 7 1
27545 10 1
27545 20 1
27545 24 1
27545 25 2
27545 30 5
27545 31 2
27545 32 1
27545 34 1
27545 40 1
27545 43 5
27545 48 1
27545 51 2
27545 52 2
27545 54 3
27545 58 1
27545 59 1
27545 61 1
27545 62 1
27545 68 1
27545 70 2
27545 71 1
27546 49 1
27547 70 1
27548 25 1
27549 54 1
27550 52 1
27551 25 1
27551 70 1
27552 52 1
27553 20 1
27554 5 1
27555 46 1
27555 65 1
27556 48 1
27557 38 2
27558 40 1
27559 24 1
27560 14 1
27561 13 1
27562 23 1
27563 71 1
27565 4 1
27565 48 2
27565 54 1
27566 59 1
27567 70 1
27568 13 1
27568 60 1
27569 51 1
27570 42 1
27570 43 1
27571 70 1
27572 60 1
27573 21 1
27574 71 1
27575 65 1
27576 13 1
27576 14 1
27576 54 1
27577 51 1
27577 70 1
27578 70 1
27579 70 1
27580 49 1
27581 68 1
27582 70 2
27583 54 1
27584 55 1
27585 30 1
27586 2 1
27587 51 1
27587 68 1
27588 9 1
27588 45 1
27588 71 1
27589 70 1
27590 54 1
27591 45 1
27592 61 1
27593 23 1
27594 52 1
27595 32 2
27595 43 1
27595 70 1
27596 48 1
27597 2 1
27598 40 1
27599 71 1
27600 54 1
27601 25 1
27602 49 1
27603 52 1
27604 62 1
27605 38 1
27606 70 1
27607 20 1
27607 34 1
27607 70 1
27608 70 1
27609 54 1
27610 62 1
27610 67 1
27611 13 1
27611 68 1
27612 58 1
27613 30 1
27614 32 1
27615 51 2
27616 58 1
27617 32 1
27618 52 1
27619 38 1
27620 40 1
27621 70 1
27622 58 1
27623 58 1
27624 4 1
27625 65 1
27626 70 1
27627 45 1
27628 70 1
27629 9 1
27630 70 1
27631 63 1
27632 48 1
27633 70 1
27634 52 1
27635 18 1
27636 58 1
27637 70 1
27638 70 1
27639 45 1
27640 70 1
27641 55 1
27642 45 1
27642 70 1
27643 62 1
27644 62 1
27645 48 1
27646 18 1
27646 48 1
27647 60 1
27648 48 1
27649 59 1
27650 45 1
27651 17 1
27652 54 1
27652 70 1
27653 51 2
27654 54 1
27655 52 1
27656 54 1
27657 13 2
27658 60 1
27659 9 1
27659 59 1
27660 13 1
27661 4 1
27661 25 1
27662 51 1
27663 30 1
27664 70 1
27665 52 1
27666 18 1
27667 52 1
27667 70 1
27668 68 1
27669 40 1
27670 70 1
27671 65 1
27672 55 1
27673 25 1
27674 45 1
27675 38 1
27676 62 1
27677 52 1
27678 52 1
27679 54 1
27680 32 1
27680 51 1
27681 52 1
27682 38 1
27683 69 1
27683 71 1
27684 25 1
27685 70 1
27685 71 2
27686 62 1
27687 25 1
27688 33 1
27689 13 1
27690 54 1
27691 70 1
27692 70 2
27693 54 1
27694 20 1
27695 60 1
27695 62 1
27696 31 1
27697 70 2
27698 70 1
27699 45 1
27700 68 1
27701 45 1
27701 51 1
27701 52 1
27702 52 1
27703 17 1
27704 30 1
27705 17 1
27705 70 1
27706 60 2
27707 48 1
27708 39 1
27709 5 1
27710 31 1
27710 70 1
27711 43 1
27712 58 1
27712 61 1
27712 63 1
27712 70 3
27713 48 1
27714 70 1
27715 65 1
27716 18 1
27718 70 1
27719 62 1
27720 10 1
27721 25 1
27722 65 1
27723 54 1
27724 54 1
27725 13 1
27726 62 1
27727 48 1
27727 54 1
27728 48 1
27729 54 1
27730 52 1
27731 54 1
27731 60 1
27731 62 1
27732 70 1
27733 38 1
27733 63 1
27734 70 1
27734 71 1
27735 71 1
27736 52 1
27737 54 1
27738 62 1
27739 38 1
27739 44 1
27739 56 1
27740 25 1
27741 33 1
27742 13 1
27743 9 1
27743 32 1
27744 54 1
27744 61 1
27745 24 1
27746 41 1
27746 51 1
27747 5 1
27747 52 1
27747 61 1
27747 68 1
27748 65 1
27749 71 1
27750 38 1
27750 51 1
27750 70 1
27750 71 1
27751 51 1
27752 43 1
27753 13 1
27753 70 1
27754 70 1
27755 61 1
27756 32 1
27756 45 1
27756 54 1
27757 52 2
27757 62 1
27757 71 1
27758 70 1
27759 52 1
27760 62 1
27760 70 1
27761 13 1
27762 41 1
27763 70 1
27764 48 1
27765 58 1
27766 34 1
27766 55 1
27767 65 1
27768 68 1
27769 71 1
27770 60 1
27771 71 1
27772 6 1
27773 32 1
27774 60 1
27774 70 1
27775 61 1
27776 45 1
27777 60 1
27778 33 1
27779 52 1
27780 14 1
27781 14 1
27781 61 1
27782 30 2
27782 70 1
27783 34 1
27784 45 1
27785 4 1
27786 70 1
27787 20 1
27788 9 1
27788 38 1
27789 24 1
27790 38 1
27791 24 1
27791 70 1
27792 34 1
27793 38 1
27793 62 1
27794 18 1
27795 45 1
27795 58 1
27796 68 1
27797 52 1
27798 55 1
27799 30 1
27800 25 1
27800 70 1
27801 33 1
27801 54 1
27802 71 1
27803 20 1
27804 71 1
27805 51 1
27806 68 1
27807 13 1
27808 9 1
27809 12 1
27810 60 1
27811 69 1
27812 52 1
27813 32 1
27813 63 1
27814 65 1
27815 2 1
27816 58 1
27817 59 1
27818 54 1
27819 6 1
27821 52 1
27822 4 1
27823 62 1
27824 38 1
27824 69 1
27824 71 1
27825 70 1
27826 13 1
27827 70 1
27828 4 1
27829 30 1
27830 62 1
27831 58 1
27832 70 1
27833 62 1
27834 71 1
27835 71 1
27836 62 1
27837 30 1
27837 63 1
27838 70 1
27839 51 1
27840 70 1
27841 20 1
27842 38 1
27843 30 1
27844 58 1
27845 51 1
27845 52 1
27846 70 1
27847 13 1
27848 68 1
27849 70 1
27850 54 1
27851 25 1
27852 70 1
27853 38 1
27853 59 2
27854 63 1
27855 52 1
27856 25 1
27857 38 1
27858 45 1
27858 51 2
27859 10 1
27859 70 1
27860 58 1
27861 68 1
27863 54 1
27865 52 1
27866 2 1
27867 70 1
27868 9 1
27869 25 1
27870 45 1
27871 54 1
27872 70 1
27873 8 1
27874 54 2
27875 34 1
27876 52 1
27877 48 1
27878 67 1
27879 59 1
27880 71 1
27881 52 1
27882 71 1
27883 41 1
27884 2 1
27885 70 1
27886 24 1
27886 54 1
27886 62 1
27887 6 1
27888 9 1
27889 58 1
27890 58 1
27891 45 1
27892 34 1
27892 58 1
27892 70 1
27893 62 1
27894 60 1
27895 49 1
27896 31 1
27896 60 1
27897 71 1
27898 70 1
27899 58 1
27900 4 1
27900 71 1
27901 30 1
27903 70 1
27904 58 1
27905 70 2
27906 65 1
27907 70 1
27908 12 1
27909 48 1
27910 30 2
27910 31 2
27910 62 1
27910 70 1
27911 20 1
27912 51 1
27912 70 1
27913 70 1
27914 48 1
27915 48 1
27916 70 1
27917 40 1
27918 25 1
27918 30 1
27918 41 1
27918 45 1
27918 58 1
27918 62 1
27918 68 1
27918 70 2
27919 38 1
27920 72 1
27921 70 1
27922 62 1
27923 70 1
27924 34 1
27925 70 1
27926 45 1
27926 60 1
27927 40 1
27927 58 1
27928 61 1
27929 52 1
27930 51 1
27931 70 1
27932 70 1
27933 12 1
27934 71 1
27935 13 1
27936 30 1
27937 14 1
27938 45 2
27939 63 1
27940 54 1
27941 58 1
27942 68 1
27943 24 1
27944 6 1
27944 70 1
27945 54 1
27946 70 1
27947 38 1
27948 54 1
27949 32 1
27949 38 1
27950 44 1
27951 31 1
27951 51 1
27952 47 1
27953 10 1
27954 18 1
27954 62 1
27955 9 1
27956 25 1
27956 62 1
27957 2 1
27958 26 1
27959 71 1
27960 20 1
27961 70 1
27962 5 1
27963 70 1
27964 20 1
27965 58 1
27965 62 1
27966 30 1
27967 25 1
27968 30 1
27969 58 1
27970 48 1
27970 62 1
27971 45 1
27972 31 1
27973 70 1
27974 30 1
27975 13 1
27976 4 1
27977 13 1
27977 20 1
27977 34 1
27978 70 1
27979 32 1
27980 2 1
27981 70 1
27982 48 2
27982 58 1
27983 30 1
27984 70 1
27985 60 1
27986 70 1
27987 52 1
27988 45 1
27989 58 1
27990 25 1
27991 20 1
27992 45 1
27993 70 1
27994 62 1
27995 30 1
27996 70 1
27997 33 1
27998 55 1
27999 62 1
28000 27 1
28001 70 2
28002 13 1
28003 32 1
28003 68 1
28004 33 1
28006 52 1
28007 71 1
28008 52 1
28009 30 1
28010 71 1
28011 55 1
28012 45 1
28013 48 1
28014 70 1
28015 9 1
28016 54 1
28017 34 1
28018 70 1
28019 70 1
28020 71 1
28021 54 1
28021 70 1
28022 33 1
28022 38 1
28023 71 1
28024 58 1
28025 54 1
28026 33 1
28026 58 1
28027 13 1
28028 25 1
28029 32 1
28030 59 1
28030 62 2
28031 2 1
28032 61 1
28033 45 1
28033 52 2
28033 70 1
28034 63 1
28035 38 2
28035 70 1
28036 38 1
28037 48 1
28037 71 1
28038 30 1
28039 71 1
28040 58 1
28041 20 1
28041 62 1
28042 18 1
28042 54 1
28043 45 1
28044 45 1
28045 70 1
28046 70 1
28047 51 1
28048 38 1
28048 45 1
28048 49 1
28049 2 1
28049 51 1
28050 52 1
28050 70 1
28050 71 1
28051 30 1
28051 45 2
28051 60 1
28051 62 1
28052 62 1
28053 6 1
28053 38 1
28054 51 1
28055 42 1
28056 38 1
28057 45 1
28058 25 1
28059 65 1
28060 38 1
28060 60 1
28061 6 1
28062 60 1
28063 9 1
28063 52 1
28064 43 1
28065 30 1
28065 54 1
28066 70 1
28067 12 1
28068 51 1
28069 38 1
28070 52 1
28071 32 1
28071 38 1
28071 52 1
28072 63 1
28073 38 1
28074 45 1
28075 14 1
28075 70 1
28076 52 1
28077 51 1
28078 9 1
28078 60 1
28079 48 1
28081 62 1
28082 13 1
28083 70 1
28084 12 1
28085 45 1
28085 70 1
28086 45 1
28087 32 1
28088 62 1
28089 52 1
28090 70 1
28091 20 1
28092 45 1
28092 70 1
28094 52 1
28095 62 1
28096 62 1
28097 70 1
28098 70 1
28099 24 1
28100 2 1
28100 17 1
28101 9 1
28102 51 1
28103 48 1
28103 54 1
28104 18 1
28106 12 1
28107 30 1
28108 58 1
28109 41 1
28110 54 1
28110 63 1
28111 34 1
28112 61 1
28113 61 1
28114 61 1
28115 60 1
28116 59 1
28117 62 1
28118 71 1
28119 49 1
28120 33 1
28121 71 1
28122 52 1
28123 51 1
28124 34 1
28125 70 1
28126 54 1
28126 70 1
28127 49 1
28128 45 1
28129 71 1
28130 49 1
28131 23 1
28132 68 1
28132 70 1
28133 38 1
28133 60 1
28134 32 1
28135 40 1
28135 70 1
28136 52 2
28137 51 1
28138 70 1
28139 30 1
28140 71 1
28141 30 1
28142 62 1
28143 17 1
28144 12 1
28145 52 1
28145 68 1
28146 54 1
28147 68 1
28148 70 1
28149 32 1
28150 70 1
28150 72 1
28151 60 2
28152 59 1
28153 9 1
28153 18 1
28153 24 1
28153 43 1
28153 71 1
28154 51 1
28155 70 1
28156 68 1
28157 42 1
28158 33 1
28159 45 1
28160 70 1
28161 43 1
28162 2 1
28162 70 1
28163 52 1
28164 70 1
28166 31 1
28166 43 1
28166 71 1
28167 52 1
28168 60 1
28168 71 1
28169 31 1
28169 32 1
28170 70 1
28171 70 1
28172 52 1
28173 52 1
28174 55 1
28175 62 1
28176 25 1
28177 4 1
28178 38 1
28179 54 1
28180 5 1
28181 43 1
28181 60 1
28182 9 1
28182 32 1
28182 62 1
28182 63 2
28182 70 1
28183 70 2
28184 34 1
28185 44 1
28186 13 1
28187 21 1
28188 18 1
28189 34 1
28190 69 1
28191 15 1
28192 34 1
28192 62 1
28193 30 1
28194 14 1
28195 71 1
28196 52 1
28196 70 1
28196 71 1
28197 18 1
28197 24 1
28197 70 2
28198 51 1
28199 48 1
28199 68 1
28200 4 1
28201 33 1
28202 62 1
28202 70 1
28203 52 1
28204 40 1
28205 38 1
28205 52 1
28205 60 1
28206 32 1
28208 59 1
28208 60 1
28208 70 2
28208 71 1
28209 52 1
28210 6 1
28211 52 1
28212 52 1
28213 71 1
28214 54 1
28215 48 1
28216 13 1
28216 30 1
28216 46 1
28216 54 1
28216 60 1
28217 45 1
28218 20 1
28220 3 1
28220 61 1
28221 30 1
28222 54 1
28223 54 1
28224 52 2
28225 51 1
28226 70 1
28227 68 1
28228 20 1
28228 51 1
28228 70 1
28229 48 1
28230 13 1
28231 25 1
28232 2 1
28232 51 1
28233 6 1
28233 52 1
28234 62 1
28235 30 1
28236 71 1
28237 38 1
28238 34 1
28240 70 1
28241 71 1
28242 69 1
28243 33 1
28244 6 1
28245 18 1
28245 45 1
28246 52 1
28247 62 1
28248 60 1
28249 52 1
28250 18 1
28251 21 1
28251 30 1
28251 58 1
28252 12 1
28253 52 1
28254 43 1
28255 26 1
28256 44 1
28257 62 1
28258 13 1
28259 52 1
28260 45 1
28260 62 1
28261 4 1
28262 45 1
28262 49 1
28263 20 1
28264 9 1
28265 54 1
28266 38 1
28267 44 1
28267 70 1
28268 52 1
28269 70 1
28270 49 1
28271 70 1
28272 20 1
28272 38 1
28273 70 1
28274 71 1
28275 20 1
28276 25 1
28276 71 1
28277 5 2
28278 30 1
28279 45 1
28280 68 1
28281 30 1
28282 45 1
28282 70 1
28283 12 1
28284 71 1
28285 13 1
28286 52 1
28287 38 1
28288 43 1
28289 9 1
28290 12 1
28291 31 1
28291 68 1
28292 62 1
28292 70 1
28293 68 1
28294 18 1
28295 70 1
28296 58 1
28297 33 1
28298 48 1
28299 70 1
28300 2 1
28301 40 1
28301 48 1
28302 52 1
28303 26 1
28304 70 1
28305 52 1
28306 20 1
28307 43 1
28308 4 1
28309 54 1
28310 41 1
28311 71 1
28312 30 1
28312 62 1
28313 70 1
28314 68 1
28315 52 1
28315 70 1
28316 38 1
28317 71 1
28318 70 1
28319 54 1
28320 70 1
28321 54 1
28322 38 1
28323 9 1
28323 38 1
28323 52 2
28324 38 1
28326 70 1
28327 45 1
28328 38 1
28329 4 1
28330 48 1
28331 48 1
28332 60 1
28332 70 2
28333 65 1
28334 70 1
28336 57 1
28337 70 1
28338 70 1
28339 70 1
28340 48 1
28341 54 1
28342 45 1
28343 55 1
28344 52 1
28344 62 1
28344 70 1
28345 25 1
28346 62 1
28347 52 1
28347 62 1
28348 20 1
28348 52 1
28349 62 1
28350 41 1
28351 70 1
28352 45 1
28353 45 1
28354 9 1
28355 60 1
28356 5 1
28356 38 1
28356 70 1
28357 71 1
28358 30 1
28359 20 1
28360 65 1
28361 45 1
28362 70 1
28363 2 1
28364 62 1
28365 31 1
28365 58 1
28366 30 1
28367 38 1
28368 18 1
28369 48 1
28370 62 1
28371 71 1
28372 70 1
28373 45 1
28374 62 1
28375 70 1
28376 70 1
28377 38 1
28378 60 1
28379 60 1
28380 43 1
28381 70 1
28382 30 1
28383 70 1
28384 70 1
28385 70 1
28386 20 1
28387 30 1
28388 54 1
28389 70 1
28390 2 1
28390 70 1
28391 51 1
28391 54 1
28392 32 1
28392 58 2
28393 52 1
28393 54 1
28394 70 1
28396 52 1
28397 71 1
28398 38 1
28399 26 1
28400 51 1
28401 69 1
28402 71 1
28403 41 1
28404 43 1
28405 9 1
28406 25 1
28407 70 1
28408 52 1
28409 70 1
28410 13 1
28411 68 1
28412 55 1
28413 4 1
28413 54 1
28414 6 1
28415 54 1
28416 4 1
28418 71 1
28419 54 1
28420 52 1
28421 70 1
28422 70 2
28423 20 1
28424 45 1
28425 70 1
28426 38 1
28427 70 1
28428 71 1
28429 48 1
28430 45 1
28431 40 1
28432 70 1
28433 62 1
28434 25 1
28435 25 1
28436 65 1
28437 70 1
28438 54 1
28439 52 1
28440 59 1
28441 38 1
28442 30 1
28442 53 1
28442 65 1
28443 41 1
28444 45 1
28445 59 1
28445 61 1
28446 34 1
28447 7 1
28447 9 2
28447 10 3
28447 13 1
28447 20 1
28447 24 4
28447 25 1
28447 30 9
28447 31 1
28447 32 1
28447 43 12
28447 45 8
28447 49 10
28447 51 4
28447 52 2
28447 54 6
28447 58 5
28447 60 2
28447 61 1
28447 62 7
28447 65 2
28447 68 1
28447 70 6
28447 71 3
28448 52 1
28448 62 1
28449 68 1
28450 71 1
28451 32 2
28452 4 1
28453 45 1
28454 38 1
28455 43 1
28456 18 1
28457 43 1
28457 70 1
28458 55 1
28459 52 1
28459 68 1
28460 34 1
28461 30 1
28462 52 2
28463 31 1
28464 49 1
28465 31 1
28466 71 1
28467 25 1
28468 20 1
28469 62 1
28470 13 1
28471 54 1
28472 58 1
28473 38 1
28473 62 1
28474 52 1
28475 58 1
28476 62 1
28477 4 1
28478 13 1
28479 58 1
28480 34 1
28481 68 1
28482 54 1
28483 60 1
28484 62 1
28484 71 1
28485 62 1
28486 48 1
28487 59 1
28488 71 2
28489 71 1
28490 48 1
28491 51 1
28492 25 1
28493 4 1
28493 71 1
28494 30 1
28495 5 1
28496 45 1
28497 48 1
28498 70 1
28499 70 2
28500 52 1
28501 20 1
28501 52 1
28502 60 2
28503 54 1
28504 34 1
28505 24 1
28506 48 1
28507 62 1
28508 70 1
28509 65 1
28509 70 1
28510 30 1
28511 61 1
28512 52 1
28513 55 1
28514 51 1
28515 6 1
28515 71 1
28516 4 1
28517 25 1
28518 68 1
28519 13 1
28520 70 2
28521 54 1
28522 4 1
28523 54 1
28524 70 1
28525 70 1
28526 46 1
28527 70 1
28528 34 1
28529 44 1
28530 6 1
28531 54 1
28532 34 1
28533 54 1
28534 68 1
28535 51 1
28536 2 1
28537 61 1
28538 71 1
28539 52 1
28539 62 1
28540 52 1
28541 70 1
28542 70 1
28543 70 1
28544 70 1
28545 58 1
28546 38 1
28546 70 1
28547 38 1
28548 48 1
28549 54 2
28550 9 1
28551 18 1
28552 49 1
28553 25 1
28553 54 1
28554 52 1
28555 20 1
28555 61 1
28556 48 1
28557 24 1
28558 25 1
28559 71 1
28560 34 1
28561 60 1
28562 49 1
28563 6 1
28564 60 1
28565 20 1
28565 34 1
28565 38 1
28565 52 1
28565 55 1
28565 68 1
28565 71 1
28566 65 1
28567 52 1
28568 49 1
28569 13 1
28570 70 1
28571 45 1
28571 58 1
28572 13 1
28572 23 1
28573 52 1
28573 61 1
28574 58 1
28575 55 1
28576 13 1
28576 58 1
28576 70 1
28577 54 1
28578 38 1
28579 70 1
28580 60 1
28581 62 1
28582 70 1
28583 52 1
28584 38 2
28584 68 1
28584 71 2
28585 70 1
28586 40 1
28587 51 1
28588 13 1
28589 25 1
28590 68 1
28591 60 1
28592 63 1
28593 45 1
28594 54 1
28595 13 1
28596 70 1
28597 54 1
28598 13 1
28598 24 1
28598 51 1
28599 2 1
28600 70 1
28601 70 1
28602 25 1
28603 51 1
28604 4 1
28605 38 1
28605 60 1
28606 54 1
28607 5 1
28607 70 1
28608 51 1
28608 52 1
28610 70 1
28611 25 1
28612 25 1
28612 38 1
28613 62 1
28614 58 1
28615 10 1
28616 8 1
28616 25 1
28617 70 1
28618 70 1
28619 70 1
28620 34 1
28621 51 1
28621 70 1
28622 70 2
28623 62 1
28624 38 1
28625 72 1
28626 45 1
28627 12 1
28628 70 1
28629 2 1
28630 52 1
28630 70 1
28631 71 1
28632 62 1
28633 38 1
28634 4 1
28635 59 1
28636 70 1
28637 63 1
28638 52 1
28639 2 1
28639 60 1
28640 4 1
28641 52 1
28642 45 1
28642 70 2
28642 71 1
28642 73 1
28643 58 1
28644 38 1
28645 38 1
28646 52 1
28647 5 1
28648 26 1
28648 41 1
28648 45 1
28648 52 1
28648 59 1
28649 25 1
28650 65 1
28651 62 1
28652 70 1
28653 30 1
28654 52 2
28655 51 1
28656 48 1
28657 61 1
28658 38 1
28659 71 1
28660 62 1
28661 54 1
28662 20 1
28663 52 1
28664 37 1
28664 70 1
28665 20 1
28666 30 1
28667 68 1
28668 45 1
28669 52 1
28670 61 1
28671 20 1
28671 52 1
28671 70 1
28672 51 1
28673 18 1
28674 55 1
28675 70 1
28676 60 1
28677 58 1
28678 49 1
28678 52 1
28678 54 1
28678 61 1
28678 62 2
28678 70 2
28679 70 1
28680 30 1
28681 43 1
28682 62 1
28683 43 1
28684 70 1
28685 13 1
28686 38 2
28687 18 1
28688 71 1
28689 34 1
28689 52 1
28690 52 1
28691 54 1
28692 61 1
28693 30 1
28694 70 2
28695 70 1
28696 68 1
28697 54 1
28698 38 1
28699 20 1
28699 30 2
28700 38 1
28701 45 1
28702 65 1
28703 40 1
28704 1 1
28705 45 1
28705 70 1
28706 38 1
28707 5 1
28707 30 1
28707 70 1
28708 30 1
28708 68 1
28709 70 1
28710 43 1
28711 38 1
28712 70 1
28713 30 1
28714 52 1
28715 13 1
28716 58 1
28717 70 1
28718 38 1
28719 12 1
28719 32 1
28719 65 1
28721 33 1
28722 60 1
28723 70 1
28724 20 1
28725 65 1
28726 51 1
28727 62 1
28728 61 1
28730 51 2
28730 52 1
28730 54 1
28730 55 1
28730 62 1
28730 70 1
28731 65 1
28732 13 1
28732 51 1
28733 13 1
28734 60 1
28735 4 1
28735 52 1
28736 9 1
28737 32 1
28737 54 1
28738 51 1
28739 68 1
28739 70 1
28740 20 1
28741 62 1
28742 71 1
28743 70 1
28744 65 1
28745 71 1
28746 63 1
28747 20 1
28748 70 1
28749 18 1
28750 2 1
28750 48 1
28751 30 1
28752 71 1
28753 70 2
28754 65 1
28755 9 2
28755 34 1
28756 70 2
28757 54 1
28758 12 1
28759 70 1
28760 18 1
28760 45 1
28761 61 1
28761 71 1
28762 70 1
28763 5 1
28763 20 1
28764 49 1
28765 68 1
28766 70 1
28767 51 1
28767 70 1
28768 24 1
28769 61 1
28769 70 1
28770 36 1
28771 20 1
28772 18 1
28773 9 1
28773 38 1
28774 71 1
28775 62 1
28776 24 1
28776 30 2
28776 43 1
28776 62 1
28777 52 1
28778 30 1
28779 39 1
28780 45 1
28780 70 1
28781 62 1
28782 13 1
28782 45 1
28783 52 1
28783 70 1
28784 70 1
28785 58 1
28786 18 1
28787 70 1
28788 60 1
28789 54 1
28790 70 1
28791 54 1
28791 62 1
28792 71 1
28792 73 1
28793 71 1
28794 30 1
28794 68 1
28795 70 1
28796 68 1
28797 30 1
28798 32 1
28798 72 1
28799 62 1
28800 38 1
28801 70 1
28802 52 1
28803 51 1
28803 70 1
28804 70 1
28805 46 1
28806 70 2
28807 32 1
28808 71 1
28809 38 1
28810 41 1
28811 34 1
28812 5 1
28812 70 2
28813 51 1
28814 41 1
28815 51 1
28816 20 1
28816 71 1
28817 51 1
28818 58 1
28819 38 1
28819 55 1
28820 54 1
28822 45 1
28822 63 1
28823 60 1
28824 45 1
28825 30 1
28826 13 1
28826 18 1
28826 31 1
28826 49 1
28827 25 1
28828 62 1
28828 70 1
28829 48 1
28830 30 1
28831 70 1
28832 52 1
28833 38 1
28833 54 1
28834 45 1
28834 52 1
28834 70 1
28835 30 1
28836 62 1
28837 25 1
28838 70 1
28839 63 1
28839 70 1
28840 59 1
28841 70 1
28842 54 1
28843 30 1
28844 38 1
28845 70 1
28846 70 1
28847 71 1
28848 71 1
28849 62 1
28850 70 1
28851 7 1
28852 68 1
28853 13 1
28853 52 1
28854 51 1
28855 43 1
28855 54 1
28855 70 1
28856 60 1
28857 70 1
28858 54 1
28859 54 1
28860 24 1
28861 31 1
28862 20 1
28863 65 1
28864 26 1
28865 34 1
28866 7 1
28867 71 1
28868 13 1
28868 54 1
28869 49 1
28870 48 1
28871 43 1
28872 52 1
28872 58 1
28873 52 1
28874 6 1
28875 20 1
28876 52 1
28877 70 1
28878 34 1
28879 55 1
28880 70 1
28881 38 1
28882 52 1
28883 25 1
28884 45 1
28885 43 1
28886 70 1
28887 52 2
28888 65 1
28889 25 1
28890 45 1
28891 70 1
28892 54 1
28893 70 1
28894 61 1
28895 70 1
28896 34 1
28898 59 1
28899 45 1
28900 52 1
28901 6 1
28902 4 1
28903 38 1
28904 70 1
28906 51 1
28906 59 1
28907 51 1
28908 15 1
28909 17 2
28910 52 1
28911 54 1
28912 70 1
28913 70 1
28913 71 1
28914 25 1
28915 4 1
28915 45 1
28916 52 1
28917 25 1
28918 30 1
28919 62 1
28920 65 1
28921 31 1
28922 40 1
28922 45 1
28923 62 1
28924 38 1
28924 52 1
28925 3 1
28926 34 1
28927 38 1
28928 13 1
28928 70 1
28929 70 1
28930 45 1
28931 4 1
28931 12 1
28931 54 1
28931 70 2
28932 54 1
28933 62 1
28934 71 1
28935 23 1
28936 38 1
28937 30 1
28938 70 1
28939 70 1
28940 9 1
28941 38 1
28942 54 1
28942 71 1
28943 41 1
28944 62 1
28945 20 1
28945 51 1
28946 4 1
28946 70 1
28947 61 1
28948 25 1
28949 62 1
28950 60 1
28951 52 1
28951 54 1
28952 58 1
28953 61 1
28954 62 1
28955 52 1
28955 62 1
28956 38 1
28957 41 1
28958 4 1
28958 59 1
28959 54 1
28959 70 1
28960 30 1
28961 51 1
28961 70 1
28962 54 1
28963 58 1
28964 43 1
28965 68 1
28966 6 2
28967 45 1
28967 54 1
28967 68 1
28968 70 1
28969 51 1
28970 43 1
28970 70 1
28971 60 1
28972 71 1
28973 60 1
28973 70 1
28974 60 1
28975 48 1
28976 5 1
28977 24 1
28978 20 1
28978 54 1
28979 62 1
28980 62 1
28981 52 1
28982 70 2
28983 54 1
28983 70 1
28984 9 1
28985 70 1
28986 30 1
28986 71 1
28987 45 1
28988 54 1
28989 70 1
28990 17 1
28991 9 1
28992 20 1
28993 51 1
28994 43 1
28995 54 1
28996 70 1
28997 68 1
28998 20 1
28998 62 1
28999 20 1
29000 4 1
29001 38 1
29001 70 1
29002 52 1
29003 12 1
29004 52 1
29004 54 1
29005 63 1
29006 59 1
29007 45 1
29008 58 1
29009 5 1
29010 4 1
29011 70 1
29012 5 1
29013 48 1
29014 71 1
29015 38 1
29016 62 1
29017 48 1
29018 70 1
29019 68 1
29020 63 1
29021 58 1
29022 51 1
29023 54 1
29024 6 1
29024 39 1
29025 52 1
29026 71 1
29027 13 1
29028 70 1
29029 55 1
29030 55 1
29030 68 1
29030 70 1
29032 71 1
29033 54 1
29034 54 1
29035 24 1
29035 30 1
29036 46 1
29037 70 1
29038 38 1
29039 45 1
29040 31 1
29041 70 1
29042 44 1
29043 18 1
29044 9 1
29045 13 1
29046 23 1
29047 52 1
29048 43 1
29049 70 1
29050 52 1
29051 18 1
29052 62 1
29053 62 1
29053 70 1
29054 70 1
29055 33 1
29056 62 1
29057 70 1
29058 58 1
29059 13 1
29059 54 1
29060 51 1
29061 9 1
29062 70 1
29063 70 1
29064 31 1
29065 54 1
29066 6 1
29067 45 1
29067 70 1
29068 7 1
29068 25 1
29068 58 1
29069 70 1
29070 41 1
29070 70 2
29071 70 1
29072 51 1
29073 52 1
29074 70 1
29075 23 1
29076 18 1
29077 60 1
29078 52 1
29079 70 1
29080 70 1
29081 48 1
29082 54 1
29083 13 1
29085 4 1
29086 68 1
29087 63 1
29088 2 1
29089 70 1
29090 13 1
29091 20 1
29092 60 1
29093 34 1
29094 6 1
29095 71 1
29096 51 1
29097 38 1
29097 45 1
29098 20 1
29098 30 1
29098 41 1
29099 31 1
29100 38 1
29101 4 1
29102 54 1
29103 68 1
29104 70 1
29105 24 1
29106 55 1
29107 45 1
29108 44 1
29109 54 1
29109 58 1
29110 13 1
29111 49 1
29112 9 1
29112 38 1
29112 54 1
29112 62 1
29112 71 1
29113 31 1
29114 70 1
29115 48 1
29116 10 1
29116 70 1
29117 54 1
29117 55 1
29118 70 1
29119 38 1
29120 49 1
29121 20 2
29121 70 1
29122 70 1
29123 71 1
29124 34 1
29124 63 1
29124 71 1
29125 71 1
29126 14 1
29127 62 1
29128 51 1
29129 70 1
29130 20 1
29130 55 1
29131 54 1
29132 70 1
29133 58 1
29133 70 1
29134 45 1
29135 63 1
29136 68 1
29137 51 1
29138 60 1
29139 43 1
29140 38 1
29140 70 1
29141 12 1
29142 38 1
29143 70 1
29144 43 1
29144 51 1
29145 70 1
29146 70 1
29147 49 1
29148 52 1
29149 45 1
29149 61 1
29149 70 2
29150 62 1
29151 54 1
29151 62 1
29151 65 1
29152 71 1
29153 2 1
29154 62 1
29154 70 1
29155 61 2
29156 71 1
29157 54 1
29158 52 1
29159 34 1
29160 2 1
29162 70 2
29163 52 1
29164 5 1
29165 9 1
29166 52 1
29167 26 1
29167 52 1
29168 70 1
29169 34 1
29170 54 1
29171 54 1
29172 61 1
29173 71 1
29174 70 1
29175 54 1
29176 13 1
29176 38 1
29176 71 1
29177 25 1
29178 61 1
29179 10 1
29179 45 1
29179 70 1
29180 10 1
29181 52 1
29182 51 1
29182 61 1
29183 12 1
29184 33 1
29185 61 1
29186 40 1
29187 49 1
29187 52 1
29188 45 1
29189 13 1
29190 32 1
29191 48 1
29192 17 1
29193 70 1
29195 51 1
29196 5 1
29197 65 1
29198 54 1
29199 61 1
29199 70 1
29200 2 1
29201 30 1
29202 52 1
29202 70 1
29203 34 1
29203 70 1
29204 71 1
29205 32 1
29206 70 1
29207 58 1
29208 24 1
29209 52 1
29210 30 1
29211 54 1
29212 48 1
29213 20 1
29213 31 1
29213 32 1
29214 41 1
29215 38 1
29216 70 1
29217 71 1
29218 70 1
29219 51 1
29219 60 1
29220 52 1
29221 10 1
29221 49 1
29222 45 1
29223 49 1
29224 26 1
29225 71 1
29226 33 1
29226 38 1
29227 4 1
29227 68 1
29228 71 1
29229 34 1
29230 62 1
29230 70 1
29231 45 1
29232 62 1
29233 71 1
29234 46 1
29235 43 1
29236 45 1
29237 51 2
29238 43 1
29239 4 1
29240 58 1
29241 52 1
29242 13 1
29243 70 1
29244 60 1
29245 59 1
29246 48 1
29247 70 1
29248 48 1
29249 70 1
29250 70 1
29251 2 1
29252 52 1
29253 62 1
29254 4 1
29255 70 1
29256 70 1
29257 48 1
29258 38 1
29259 45 1
29260 70 2
29261 54 1
29262 62 1
29263 52 1
29264 4 1
29265 60 1
29266 59 1
29267 58 1
29268 45 1
29268 51 1
29269 60 1
29270 49 1
29270 61 1
29271 49 1
29271 70 1
29272 25 1
29273 70 1
29274 70 1
29275 38 1
29276 62 1
29277 20 1
29278 70 1
29279 10 1
29279 62 1
29280 34 1
29281 54 1
29282 57 1
29282 62 1
29283 61 1
29284 70 1
29285 43 1
29286 39 1
29287 52 1
29288 62 1
29288 70 1
29289 9 1
29290 70 1
29291 12 1
29292 24 2
29292 31 2
29292 34 1
29292 40 1
29292 62 1
29293 45 1
29294 70 1
29295 13 1
29296 30 1
29297 70 1
29298 20 1
29299 49 1
29300 61 1
29301 38 1
29301 59 1
29301 70 1
29302 9 1
29303 70 1
29304 18 1
29305 71 1
29306 4 1
29307 54 1
29308 62 1
29309 58 1
29310 51 1
29311 54 2
29312 49 1
29313 51 1
29314 41 1
29314 45 1
29315 38 1
29315 62 1
29316 25 1
29317 52 1
29318 30 1
29319 48 1
29319 62 1
29320 9 1
29320 24 1
29320 30 1
29320 45 1
29320 68 1
29321 58 1
29322 55 1
29323 5 1
29324 54 1
29325 38 1
29326 45 1
29327 18 1
29328 4 1
29329 38 1
29330 70 1
29331 59 1
29332 38 1
29332 54 1
29333 62 1
29333 68 1
29334 8 1
29335 4 1
29336 13 1
29337 60 1
29338 61 1
29339 45 1
29340 44 1
29341 10 1
29341 54 1
29342 70 1
29343 34 1
29344 70 1
29345 20 1
29346 32 1
29346 59 1
29347 54 1
29348 60 1
29349 68 1
29350 70 1
29352 38 1
29353 52 1
29354 34 1
29355 68 1
29356 54 1
29357 62 1
29358 31 1
29359 60 1
29360 45 1
29361 60 1
29362 38 1
29362 70 1
29363 21 1
29364 25 1
29364 51 1
29365 70 1
29366 48 1
29366 52 1
29366 71 1
29367 70 1
29368 25 1
29369 9 1
29370 20 1
29371 2 1
29372 70 1
29373 70 1
29374 25 1
29375 20 1
29376 12 1
29377 33 1
29378 30 1
29379 52 1
29380 70 1
29381 51 1
29382 13 1
29383 38 1
29384 13 1
29385 25 1
29385 38 1
29386 54 1
29387 70 1
29388 33 1
29389 68 1
29389 71 1
29390 45 1
29390 55 1
29391 62 1
29392 38 1
29393 70 1
29394 47 1
29394 71 1
29396 52 1
29397 55 1
29398 70 1
29399 52 1
29400 38 1
29401 43 1
29402 70 1
29403 52 1
29403 54 1
29404 20 1
29405 48 1
29406 43 1
29406 54 1
29407 54 1
29408 71 1
29409 38 1
29409 43 1
29409 51 1
29409 59 1
29410 18 1
29410 45 1
29411 52 1
29412 71 1
29413 20 1
29413 31 1
29414 52 2
29415 38 1
29416 52 1
29417 23 1
29418 71 1
29419 54 1
29420 45 1
29421 71 1
29422 70 2
29423 38 1
29424 70 1
29425 5 1
29427 68 1
29428 13 1
29428 38 1
29429 39 1
29430 70 2
29431 54 1
29431 71 1
29432 54 1
29433 40 1
29434 32 1
29434 52 1
29435 52 1
29436 13 1
29437 70 1
29438 43 1
29438 54 1
29438 68 1
29439 14 1
29440 48 1
29441 52 1
29442 5 1
29443 52 1
29444 54 1
29445 71 1
29446 52 1
29447 70 1
29448 18 1
29449 45 1
29450 38 1
29451 70 1
29453 70 1
29454 70 1
29456 20 1
29457 12 1
29458 13 1
29458 54 1
29459 70 1
29460 61 1
29461 49 1
29461 52 1
29461 62 1
29462 58 1
29463 60 1
29464 70 1
29465 70 1
29466 70 1
29467 70 1
29467 71 1
29468 70 1
29469 70 1
29470 45 1
29470 70 1
29471 71 1
29472 51 1
29473 70 1
29474 43 1
29475 62 1
29476 45 1
29477 13 1
29478 70 1
29479 49 1
29480 62 1
29481 32 1
29482 2 1
29484 70 1
29485 20 1
29485 32 1
29485 70 1
29486 70 1
29487 54 1
29488 71 1
29489 21 1
29489 58 1
29490 70 1
29491 45 1
29492 54 2
29493 5 1
29493 38 1
29494 54 1
29495 70 1
29496 70 1
29497 51 1
29498 58 1
29499 12 1
29500 61 2
29501 61 1
29502 54 1
29502 62 1
29503 4 1
29504 6 1
29504 71 1
29505 48 1
29506 49 1
29506 58 1
29507 48 1
29507 55 1
29508 62 1
29509 2 1
29509 32 1
29510 25 1
29511 70 1
29511 73 1
29512 38 1
29513 70 1
29514 13 1
29515 14 1
29516 52 1
29517 31 1
29518 54 1
29519 48 1
29520 6 1
29521 70 1
29522 71 1
29523 41 1
29524 70 1
29525 48 1
29526 38 1
29526 53 1
29527 25 1
29528 51 1
29529 49 1
29530 48 1
29531 30 1
29532 70 1
29533 51 1
29534 70 1
29535 45 1
29536 60 1
29537 7 1
29538 43 1
29538 48 1
29539 70 1
29540 54 1
29541 63 1
29542 6 1
29543 18 1
29543 30 1
29544 20 1
29545 43 1
29545 70 1
29546 70 1
29547 51 1
29548 41 1
29549 62 1
29550 62 1
29551 14 1
